 vasp.5.4.4.18Apr17-6-g9f103f2a35 (build Jul 29 2018 09:17:02) complex

 executed on             LinuxIFC date 2018.08.05  18:40:42

 INCAR:
 POTCAR:    PAW_PBE Si 05Jan2001

 POTCAR:    PAW_PBE Si 05Jan2001
   VRHFIN =Si: s2p2

   TITEL  = PAW_PBE Si 05Jan2001
   POMASS =   28.085; ZVAL   =    4.000    mass and valenz
   ENMAX  =  245.345; ENMIN  =  184.009 eV

  PAW_PBE Si 05Jan2001                  :

 POSCAR: Si
  positions in direct lattice
 exchange correlation table for  LEXCH =        8
   RHO(1)=    0.500       N(1)  =     2000
   RHO(2)=  100.500       N(2)  =     4000

 ion  position               nearest neighbor table
   1  0.875  0.875  0.875-   2 2.37   2 2.37   2 2.37   2 2.37
   2  0.125  0.125  0.125-   1 2.37   1 2.37   1 2.37   1 2.37

  LATTYP: Found a face centered cubic cell.
 ALAT       =     5.4680000000

  Lattice vectors:

 A1 = (   0.0000000000,   2.7340000000,   2.7340000000)
 A2 = (   2.7340000000,   0.0000000000,   2.7340000000)
 A3 = (   2.7340000000,   2.7340000000,   0.0000000000)

Analysis of symmetry for initial positions (statically):
 Subroutine PRICEL returns:
 Original cell was already a primitive cell.

 Routine SETGRP: Setting up the symmetry group for a
 face centered cubic supercell.

 Subroutine GETGRP returns: Found 48 space group operations
 (whereof 12 operations were pure point group operations)
 out of a pool of 48 trial point group operations.

The static configuration has the point symmetry D_3d.
 The point group associated with its full space group is O_h .

Analysis of symmetry for dynamics (positions and initial velocities):
 Subroutine PRICEL returns:
 Original cell was already a primitive cell.

 Routine SETGRP: Setting up the symmetry group for a
 face centered cubic supercell.

 Subroutine GETGRP returns: Found 48 space group operations
 (whereof 12 operations were pure point group operations)
 out of a pool of 48 trial point group operations.

The dynamic configuration has the point symmetry D_3d.
 The point group associated with its full space group is O_h .

 Subroutine INISYM returns: Found 48 space group operations
 (whereof 12 operations are pure point group operations),
 and found     1 'primitive' translations

 KPOINTS: kpoints for bandstructure L-G-X-U K-G
  interpolating k-points between supplied coordinates
  k-points in reciprocal lattice
Space group operators:
 irot       det(A)        alpha          n_x          n_y          n_z        tau_x        tau_y        tau_z
    1     1.000000     0.000001     1.000000     0.000000     0.000000     0.000000     0.000000     0.000000
    2    -1.000000     0.000001     1.000000     0.000000     0.000000     0.000000     0.000000     0.000000
    3     1.000000   120.000000    -0.577350    -0.577350    -0.577350     0.000000     0.000000     0.000000
    4    -1.000000   120.000000    -0.577350    -0.577350    -0.577350     0.000000     0.000000     0.000000
    5     1.000000   120.000000     0.577350     0.577350     0.577350     0.000000     0.000000     0.000000
    6    -1.000000   120.000000     0.577350     0.577350     0.577350     0.000000     0.000000     0.000000
    7     1.000000   180.000000     0.000000    -0.707107     0.707107     0.000000     0.000000     0.000000
    8    -1.000000   180.000000     0.000000    -0.707107     0.707107     0.000000     0.000000     0.000000
    9     1.000000   180.000000     0.707107    -0.707107     0.000000     0.000000     0.000000     0.000000
   10    -1.000000   180.000000     0.707107    -0.707107     0.000000     0.000000     0.000000     0.000000
   11     1.000000   180.000000     0.707107     0.000000    -0.707107     0.000000     0.000000     0.000000
   12    -1.000000   180.000000     0.707107     0.000000    -0.707107     0.000000     0.000000     0.000000
   13     1.000000    90.000000     0.000000     0.000000    -1.000000     0.500000     0.000000     0.000000
   14    -1.000000    90.000000     0.000000     0.000000    -1.000000     0.500000     0.000000     0.000000
   15     1.000000   180.000000     0.000000     0.707107     0.707107     0.500000     0.000000     0.000000
   16    -1.000000   180.000000     0.000000     0.707107     0.707107     0.500000     0.000000     0.000000
   17     1.000000    90.000000     0.000000     1.000000     0.000000     0.500000     0.000000     0.000000
   18    -1.000000    90.000000     0.000000     1.000000     0.000000     0.500000     0.000000     0.000000
   19     1.000000   180.000000     0.000000     0.000000     1.000000     0.000000     0.000000     0.500000
   20    -1.000000   180.000000     0.000000     0.000000     1.000000     0.000000     0.000000     0.500000
   21     1.000000   120.000000    -0.577350     0.577350     0.577350     0.000000     0.000000     0.500000
   22    -1.000000   120.000000    -0.577350     0.577350     0.577350     0.000000     0.000000     0.500000
   23     1.000000   120.000000    -0.577350     0.577350    -0.577350     0.000000     0.000000     0.500000
   24    -1.000000   120.000000    -0.577350     0.577350    -0.577350     0.000000     0.000000     0.500000
   25     1.000000    90.000000     0.000000     0.000000     1.000000     0.000000     0.500000     0.000000
   26    -1.000000    90.000000     0.000000     0.000000     1.000000     0.000000     0.500000     0.000000
   27     1.000000    90.000000    -1.000000     0.000000     0.000000     0.000000     0.500000     0.000000
   28    -1.000000    90.000000    -1.000000     0.000000     0.000000     0.000000     0.500000     0.000000
   29     1.000000   180.000000     0.707107     0.000000     0.707107     0.000000     0.500000     0.000000
   30    -1.000000   180.000000     0.707107     0.000000     0.707107     0.000000     0.500000     0.000000
   31     1.000000   120.000000     0.577350    -0.577350     0.577350     0.500000     0.000000     0.000000
   32    -1.000000   120.000000     0.577350    -0.577350     0.577350     0.500000     0.000000     0.000000
   33     1.000000   120.000000    -0.577350    -0.577350     0.577350     0.500000     0.000000     0.000000
   34    -1.000000   120.000000    -0.577350    -0.577350     0.577350     0.500000     0.000000     0.000000
   35     1.000000   180.000000     1.000000     0.000000     0.000000     0.500000     0.000000     0.000000
   36    -1.000000   180.000000     1.000000     0.000000     0.000000     0.500000     0.000000     0.000000
   37     1.000000    90.000000     0.000000    -1.000000     0.000000     0.000000     0.000000     0.500000
   38    -1.000000    90.000000     0.000000    -1.000000     0.000000     0.000000     0.000000     0.500000
   39     1.000000   180.000000     0.707107     0.707107     0.000000     0.000000     0.000000     0.500000
   40    -1.000000   180.000000     0.707107     0.707107     0.000000     0.000000     0.000000     0.500000
   41     1.000000    90.000000     1.000000     0.000000     0.000000     0.000000     0.000000     0.500000
   42    -1.000000    90.000000     1.000000     0.000000     0.000000     0.000000     0.000000     0.500000
   43     1.000000   120.000000     0.577350    -0.577350    -0.577350     0.000000     0.500000     0.000000
   44    -1.000000   120.000000     0.577350    -0.577350    -0.577350     0.000000     0.500000     0.000000
   45     1.000000   180.000000     0.000000     1.000000     0.000000     0.000000     0.500000     0.000000
   46    -1.000000   180.000000     0.000000     1.000000     0.000000     0.000000     0.500000     0.000000
   47     1.000000   120.000000     0.577350     0.577350    -0.577350     0.000000     0.500000     0.000000
   48    -1.000000   120.000000     0.577350     0.577350    -0.577350     0.000000     0.500000     0.000000

 SYSTEM =  Si
 POSCAR =  Si

 Startparameter for this run:
   NWRITE =      2    write-flag & timer
   PREC   = medium    normal or accurate (medium, high low for compatibility)
   ISTART =      0    job   : 0-new  1-cont  2-samecut
   ICHARG =      2    charge: 1-file 2-atom 10-const
   ISPIN  =      1    spin polarized calculation?
   LNONCOLLINEAR =      F non collinear calculations
   LSORBIT =      F    spin-orbit coupling
   INIWAV =      1    electr: 0-lowe 1-rand  2-diag
   LASPH  =      F    aspherical Exc in radial PAW
   METAGGA=      F    non-selfconsistent MetaGGA calc.

 Electronic Relaxation 1
   ENCUT  =  600.0 eV  44.10 Ry    6.64 a.u.   7.72  7.72  7.72*2*pi/ulx,y,z
   ENINI  =  600.0     initial cutoff
   ENAUG  =  322.1 eV  augmentation charge cutoff
   NELM   =     60;   NELMIN=  2; NELMDL= -5     # of ELM steps
   EDIFF  = 0.1E-07   stopping-criterion for ELM
   LREAL  =      F    real-space projection
   NLSPLINE    = F    spline interpolate recip. space projectors
   LCOMPAT=      F    compatible to vasp.4.4
   GGA_COMPAT  = T    GGA compatible to vasp.4.4-vasp.4.6
   LMAXPAW     = -100 max onsite density
   LMAXMIX     =    2 max onsite mixed and CHGCAR
   VOSKOWN=      0    Vosko Wilk Nusair interpolation
   ROPT   =    0.00000
 Ionic relaxation
   EDIFFG = 0.1E-06   stopping-criterion for IOM
   NSW    =      0    number of steps for IOM
   NBLOCK =      1;   KBLOCK =      1    inner block; outer block
   IBRION =     -1    ionic relax: 0-MD 1-quasi-New 2-CG
   NFREE  =      0    steps in history (QN), initial steepest desc. (CG)
   ISIF   =      2    stress and relaxation
   IWAVPR =     10    prediction:  0-non 1-charg 2-wave 3-comb
   ISYM   =      2    0-nonsym 1-usesym 2-fastsym
   LCORR  =      T    Harris-Foulkes like correction to forces

   POTIM  = 0.5000    time-step for ionic-motion
   TEIN   =    0.0    initial temperature
   TEBEG  =    0.0;   TEEND  =   0.0 temperature during run
   SMASS  =  -3.00    Nose mass-parameter (am)
   estimated Nose-frequenzy (Omega)   =  0.10E-29 period in steps =****** mass=  -0.342E-27a.u.
   SCALEE = 1.0000    scale energy and forces
   NPACO  =    256;   APACO  = 16.0  distance and # of slots for P.C.
   PSTRESS=    0.0 pullay stress

  Mass of Ions in am
   POMASS =  28.09
  Ionic Valenz
   ZVAL   =   4.00
  Atomic Wigner-Seitz radii
  virtual crystal weights
   VCA    =   1.00
   NELECT =       8.0000    total number of electrons
   NUPDOWN=      -1.0000    fix difference up-down

 DOS related values:
   EMIN   =  10.00;   EMAX   =-10.00  energy-range for DOS
   EFERMI =   0.00
   ISMEAR =     1;   SIGMA  =   0.20  broadening in eV -4-tet -1-fermi 0-gaus

 Electronic relaxation 2 (details)
   IALGO  =     58    algorithm
   LDIAG  =      T    sub-space diagonalisation (order eigenvalues)
   LSUBROT=      F    optimize rotation matrix (better conditioning)
   TURBO    =      0    0=normal 1=particle mesh
   IRESTART =      0    0=no restart 2=restart with 2 vectors
   NREBOOT  =      0    no. of reboots
   NMIN     =      0    reboot dimension
   EREF     =   0.00    reference energy to select bands
   IMIX   =      4    mixing-type and parameters
     AMIX     =   0.40;   BMIX     =  1.00
     AMIX_MAG =   1.60;   BMIX_MAG =  1.00
     AMIN     =   0.10
     WC   =   100.;   INIMIX=   1;  MIXPRE=   1;  MAXMIX= -45

 Intra band minimization:
   WEIMIN = 0.0000     energy-eigenvalue tresh-hold
[...]
   0.50000000  0.50000000  0.50000000       0.010
   0.47826087  0.47826087  0.47826087       0.010
   0.45652174  0.45652174  0.45652174       0.010
   0.43478261  0.43478261  0.43478261       0.010
   0.41304348  0.41304348  0.41304348       0.010
   0.39130435  0.39130435  0.39130435       0.010
   0.36956522  0.36956522  0.36956522       0.010
   0.34782609  0.34782609  0.34782609       0.010
   0.32608696  0.32608696  0.32608696       0.010
   0.30434783  0.30434783  0.30434783       0.010
   0.28260870  0.28260870  0.28260870       0.010
   0.26086957  0.26086957  0.26086957       0.010
   0.23913043  0.23913043  0.23913043       0.010
   0.21739130  0.21739130  0.21739130       0.010
   0.19565217  0.19565217  0.19565217       0.010
   0.17391304  0.17391304  0.17391304       0.010
   0.15217391  0.15217391  0.15217391       0.010
   0.13043478  0.13043478  0.13043478       0.010
   0.10869565  0.10869565  0.10869565       0.010
   0.08695652  0.08695652  0.08695652       0.010
   0.06521739  0.06521739  0.06521739       0.010
   0.04347826  0.04347826  0.04347826       0.010
   0.02173913  0.02173913  0.02173913       0.010
   0.00000000  0.00000000  0.00000000       0.010
   0.00000000  0.00000000  0.00000000       0.010
   0.00000000  0.02173913  0.02173913       0.010
   0.00000000  0.04347826  0.04347826       0.010
   0.00000000  0.06521739  0.06521739       0.010
   0.00000000  0.08695652  0.08695652       0.010
   0.00000000  0.10869565  0.10869565       0.010
   0.00000000  0.13043478  0.13043478       0.010
   0.00000000  0.15217391  0.15217391       0.010
   0.00000000  0.17391304  0.17391304       0.010
   0.00000000  0.19565217  0.19565217       0.010
   0.00000000  0.21739130  0.21739130       0.010
   0.00000000  0.23913043  0.23913043       0.010
   0.00000000  0.26086957  0.26086957       0.010
   0.00000000  0.28260870  0.28260870       0.010
   0.00000000  0.30434783  0.30434783       0.010
   0.00000000  0.32608696  0.32608696       0.010
   0.00000000  0.34782609  0.34782609       0.010
   0.00000000  0.36956522  0.36956522       0.010
   0.00000000  0.39130435  0.39130435       0.010
   0.00000000  0.41304348  0.41304348       0.010
   0.00000000  0.43478261  0.43478261       0.010
   0.00000000  0.45652174  0.45652174       0.010
   0.00000000  0.47826087  0.47826087       0.010
   0.00000000  0.50000000  0.50000000       0.010
   0.00000000  0.50000000  0.50000000       0.010
   0.01086957  0.50543478  0.50543478       0.010
   0.02173913  0.51086957  0.51086957       0.010
   0.03260870  0.51630435  0.51630435       0.010
   0.04347826  0.52173913  0.52173913       0.010
   0.05434783  0.52717391  0.52717391       0.010
   0.06521739  0.53260870  0.53260870       0.010
   0.07608696  0.53804348  0.53804348       0.010
   0.08695652  0.54347826  0.54347826       0.010
   0.09782609  0.54891304  0.54891304       0.010
   0.10869565  0.55434783  0.55434783       0.010
   0.11956522  0.55978261  0.55978261       0.010
[...]
   0.22826087  0.45652174  0.22826087       0.010
   0.21195652  0.42391304  0.21195652       0.010
   0.19565217  0.39130435  0.19565217       0.010
   0.17934783  0.35869565  0.17934783       0.010
   0.16304348  0.32608696  0.16304348       0.010
   0.14673913  0.29347826  0.14673913       0.010
   0.13043478  0.26086957  0.13043478       0.010
   0.11413043  0.22826087  0.11413043       0.010
   0.09782609  0.19565217  0.09782609       0.010
   0.08152174  0.16304348  0.08152174       0.010
   0.06521739  0.13043478  0.06521739       0.010
   0.04891304  0.09782609  0.04891304       0.010
   0.03260870  0.06521739  0.03260870       0.010
   0.01630435  0.03260870  0.01630435       0.010
   0.00000000  0.00000000  0.00000000       0.010

 position of ions in fractional coordinates (direct lattice)
   0.87500000  0.87500000  0.87500000
   0.12500000  0.12500000  0.12500000

 position of ions in cartesian coordinates  (Angst):
   4.78450000  4.78450000  4.78450000
   0.68350000  0.68350000  0.68350000

 k-point  1 :   0.5000 0.5000 0.5000  plane waves:    1380
 k-point  2 :   0.4783 0.4783 0.4783  plane waves:    1377
 k-point  3 :   0.4565 0.4565 0.4565  plane waves:    1377
 k-point  4 :   0.4348 0.4348 0.4348  plane waves:    1383
 k-point  5 :   0.4130 0.4130 0.4130  plane waves:    1374
 k-point  6 :   0.3913 0.3913 0.3913  plane waves:    1368
 k-point  7 :   0.3696 0.3696 0.3696  plane waves:    1371
 k-point  8 :   0.3478 0.3478 0.3478  plane waves:    1362
 k-point  9 :   0.3261 0.3261 0.3261  plane waves:    1362
 k-point 10 :   0.3043 0.3043 0.3043  plane waves:    1360
 k-point 11 :   0.2826 0.2826 0.2826  plane waves:    1366
 k-point 12 :   0.2609 0.2609 0.2609  plane waves:    1363
 k-point 13 :   0.2391 0.2391 0.2391  plane waves:    1375
 k-point 14 :   0.2174 0.2174 0.2174  plane waves:    1375
 k-point 15 :   0.1957 0.1957 0.1957  plane waves:    1369
 k-point 16 :   0.1739 0.1739 0.1739  plane waves:    1375
 k-point 17 :   0.1522 0.1522 0.1522  plane waves:    1375
 k-point 18 :   0.1304 0.1304 0.1304  plane waves:    1372
 k-point 19 :   0.1087 0.1087 0.1087  plane waves:    1384
 k-point 20 :   0.0870 0.0870 0.0870  plane waves:    1381
 k-point 21 :   0.0652 0.0652 0.0652  plane waves:    1381
 k-point 22 :   0.0435 0.0435 0.0435  plane waves:    1375
 k-point 23 :   0.0217 0.0217 0.0217  plane waves:    1363
 k-point 24 :   0.0000 0.0000 0.0000  plane waves:    1363
 k-point 25 :   0.0000 0.0000 0.0000  plane waves:    1363
 k-point 26 :   0.0000 0.0217 0.0217  plane waves:    1371
 k-point 27 :   0.0000 0.0435 0.0435  plane waves:    1371
 k-point 28 :   0.0000 0.0652 0.0652  plane waves:    1379
 k-point 29 :   0.0000 0.0870 0.0870  plane waves:    1379
 k-point 30 :   0.0000 0.1087 0.1087  plane waves:    1379
 k-point 31 :   0.0000 0.1304 0.1304  plane waves:    1371
 k-point 32 :   0.0000 0.1522 0.1522  plane waves:    1371
 k-point 33 :   0.0000 0.1739 0.1739  plane waves:    1371
 k-point 34 :   0.0000 0.1957 0.1957  plane waves:    1363
 k-point 35 :   0.0000 0.2174 0.2174  plane waves:    1355
 k-point 36 :   0.0000 0.2391 0.2391  plane waves:    1355
 k-point 37 :   0.0000 0.2609 0.2609  plane waves:    1355
 k-point 38 :   0.0000 0.2826 0.2826  plane waves:    1359
 k-point 39 :   0.0000 0.3043 0.3043  plane waves:    1363
 k-point 40 :   0.0000 0.3261 0.3261  plane waves:    1355
 k-point 41 :   0.0000 0.3478 0.3478  plane waves:    1363
 k-point 42 :   0.0000 0.3696 0.3696  plane waves:    1359
 k-point 43 :   0.0000 0.3913 0.3913  plane waves:    1359
 k-point 44 :   0.0000 0.4130 0.4130  plane waves:    1359
 k-point 45 :   0.0000 0.4348 0.4348  plane waves:    1359
 k-point 46 :   0.0000 0.4565 0.4565  plane waves:    1359
 k-point 47 :   0.0000 0.4783 0.4783  plane waves:    1362
 k-point 48 :   0.0000 0.5000 0.5000  plane waves:    1362
 k-point 49 :   0.0000 0.5000 0.5000  plane waves:    1362
 k-point 50 :   0.0109 0.5054 0.5054  plane waves:    1362
 k-point 51 :   0.0217 0.5109 0.5109  plane waves:    1362
 k-point 52 :   0.0326 0.5163 0.5163  plane waves:    1362
 k-point 53 :   0.0435 0.5217 0.5217  plane waves:    1362
 k-point 54 :   0.0543 0.5272 0.5272  plane waves:    1362
 k-point 55 :   0.0652 0.5326 0.5326  plane waves:    1358
 k-point 56 :   0.0761 0.5380 0.5380  plane waves:    1360
 k-point 57 :   0.0870 0.5435 0.5435  plane waves:    1352
 k-point 58 :   0.0978 0.5489 0.5489  plane waves:    1352
 k-point 59 :   0.1087 0.5543 0.5543  plane waves:    1354
 k-point 60 :   0.1196 0.5598 0.5598  plane waves:    1356
[...]
 k-point 82 :   0.2283 0.4565 0.2283  plane waves:    1360
 k-point 83 :   0.2120 0.4239 0.2120  plane waves:    1364
 k-point 84 :   0.1957 0.3913 0.1957  plane waves:    1362
 k-point 85 :   0.1793 0.3587 0.1793  plane waves:    1366
 k-point 86 :   0.1630 0.3261 0.1630  plane waves:    1370
 k-point 87 :   0.1467 0.2935 0.1467  plane waves:    1370
 k-point 88 :   0.1304 0.2609 0.1304  plane waves:    1371
 k-point 89 :   0.1141 0.2283 0.1141  plane waves:    1375
 k-point 90 :   0.0978 0.1957 0.0978  plane waves:    1371
 k-point 91 :   0.0815 0.1630 0.0815  plane waves:    1371
 k-point 92 :   0.0652 0.1304 0.0652  plane waves:    1377
 k-point 93 :   0.0489 0.0978 0.0489  plane waves:    1383
 k-point 94 :   0.0326 0.0652 0.0326  plane waves:    1383
 k-point 95 :   0.0163 0.0326 0.0163  plane waves:    1371
 k-point 96 :   0.0000 0.0000 0.0000  plane waves:    1363

 maximum and minimum number of plane-waves per node :      1384     1348

 maximum number of plane-waves:      1384
 maximum index in each direction:
   IXMAX=    7   IYMAX=    7   IZMAX=    7
   IXMIN=   -8   IYMIN=   -8   IZMIN=   -8

 serial   3D FFT for wavefunctions
 parallel 3D FFT for charge:
    minimum data exchange during FFTs selected (reduces bandwidth)

 Broyden mixing: mesh for mixing (old mesh)
   NGX = 15   NGY = 15   NGZ = 15
  (NGX  = 24   NGY  = 24   NGZ  = 24)
  gives a total of   3375 points

 initial charge density was supplied:
 charge density of overlapping atoms calculated
 number of electron       8.0000000 magnetization
 keeping initial charge density in first step

 Maximum index for augmentation-charges          196 (set IRDMAX)

 First call to EWALD:  gamma=   0.515
 Maximum number of real-space cells 3x 3x 3
 Maximum number of reciprocal cells 3x 3x 3

--------------------------------------- Iteration      1(   1)  ---------------------------------------

 eigenvalue-minimisations  :  3072
 total energy-change (2. order) : 0.4298383E+01  (-0.4927464E+03)
 number of electron       8.0000000 magnetization
 augmentation part        8.0000000 magnetization

 Free energy of the ion-electron system (eV)
  alpha Z        PSCENC =         3.29449589
  Ewald energy   TEWEN  =      -226.97511711
  -Hartree energ DENC   =       -11.31730863
  -exchange      EXHF   =         0.00000000
  -V(xc)+E(xc)   XCENC  =       -18.68326879
  PAW double counting   =       176.24759923     -141.06103558
  entropy T*S    EENTRO =         0.00178438
  eigenvalues    EBANDS =        16.65811418
  atomic energy  EATOM  =       206.13311910
  free energy    TOTEN  =         4.29838266 eV

  energy without entropy =        4.29659828  energy(sigma->0) =        4.29778786

[...]

 eigenvalue-minimisations  :  4528
 total energy-change (2. order) :-0.1150508E+02  (-0.1071835E+02)
 number of electron       8.0000000 magnetization
 augmentation part        8.0000000 magnetization

[...]

 eigenvalue-minimisations  :     0
 total energy-change (2. order) : 0.4475085E+00  (-0.8622174E-01)
 number of electron       8.0000015 magnetization
 augmentation part       -0.4287522 magnetization

[...]

 eigenvalue-minimisations  :     0
 total energy-change (2. order) :-0.6457343E-06  (-0.7529358E-07)
 number of electron       8.0000015 magnetization
 augmentation part       -0.4280963 magnetization

[...]

 eigenvalue-minimisations  :     0
 total energy-change (2. order) :-0.7599203E-07  ( 0.3091175E-07)
 number of electron       8.0000015 magnetization
 augmentation part       -0.4280969 magnetization

[...]

--------------------------------------- Iteration      1(  15)  ---------------------------------------

 eigenvalue-minimisations  :     0
 total energy-change (2. order) :-0.6142159E-08  ( 0.7537058E-09)
 number of electron       8.0000015 magnetization
 augmentation part       -0.4280971 magnetization

 Free energy of the ion-electron system (eV)
  alpha Z        PSCENC =         3.29449589
  Ewald energy   TEWEN  =      -226.97511711
  -Hartree energ DENC   =       -17.18640784
  -exchange      EXHF   =         0.00000000
  -V(xc)+E(xc)   XCENC  =       -17.82413324
  PAW double counting   =       872.10379480     -837.16157162
  entropy T*S    EENTRO =         0.00570750
  eigenvalues    EBANDS =        10.65743540
  atomic energy  EATOM  =       206.13311910
  free energy    TOTEN  =        -6.95267723 eV

  energy without entropy =       -6.95838473  energy(sigma->0) =       -6.95457973

  average scaling for gradient   1.4045

 average (electrostatic) potential at core
  the test charge radii are     0.9892
  (the norm of the test charge is              1.0000)
       1 -83.0416       2 -83.0416

 E-fermi :   6.0281     XC(G=0):  -9.1829     alpha+bet :-11.7364

 k-point     1 :       0.5000    0.5000    0.5000
  band No.  band energies     occupation
      1      -3.6804      2.00000
      2      -1.0492      2.00000
      3       4.6857      2.00000
      4       4.6857      2.00000
      5       7.3066     -0.00000
      6       9.1116     -0.00000
      7       9.1116     -0.00000
      8      13.4646      0.00000
      9      16.2969      0.00000
     10      16.2969      0.00000
     11      17.0128      0.00000
     12      17.0128      0.00000
     13      17.0741      0.00000
     14      18.6119      0.00000
     15      25.0205      0.00000
     16      25.5519      0.00000

[...]

 k-point    96 :       0.0000    0.0000    0.0000
  band No.  band energies     occupation
      1      -5.9823      2.00000
      2       5.8879      1.91953
      3       5.8879      1.91937
      4       5.8879      1.91936
      5       8.3426     -0.00000
      6       8.3426     -0.00000
      7       8.3426     -0.00000
      8       9.0474     -0.00000
      9      13.4696      0.00000
     10      13.4696      0.00000
     11      13.6876      0.00000
     12      16.8960      0.00000
     13      16.8960      0.00000
     14      16.8960      0.00000
     15      21.0953      0.00000
     16      28.7071      0.00000

 soft charge-density along one line, spin component           1
         0         1         2         3         4         5         6         7         8         9
 total charge-density along one line

------------------------ aborting loop because EDIFF is reached ----------------------------------------

 total charge

# of ion       s       p       d       tot
    1        0.672   1.019   0.000   1.691
    2        0.672   1.019   0.000   1.691
tot          1.343   2.038   0.000   3.381

  FORCE on cell =-STRESS in cart. coord.  units (eV):
  Direction    XX          YY          ZZ          XY          YZ          ZX
  Alpha Z     3.29450     3.29450     3.29450
  Ewald     -75.65841   -75.65841   -75.65841    -0.00000    -0.00000     0.00000
  Hartree     5.72881     5.72881     5.72881     0.00000     0.00000     0.00000
  E(xc)     -25.60020   -25.60020   -25.60020    -0.00018    -0.00018    -0.00018
  Local     -30.72403   -30.72403   -30.72403     0.00022     0.00022     0.00022
  n-local    72.53937    76.48162    77.55515    -0.83816    -1.27357    -1.89044
  augment   -10.87621   -10.87621   -10.87621    -0.00016    -0.00016    -0.00016
  Kinetic    57.86775    62.33942    63.05688    -0.94377    -1.76438    -1.31563
  Fock        0.00000     0.00000     0.00000     0.00000     0.00000     0.00000
  Total       2.77785     2.77785     2.77785     0.00000    -0.00000    -0.00000
  in kB     108.89158   108.89158   108.89158     0.00000    -0.00000    -0.00000

 VOLUME and BASIS-vectors are now :
  energy-cutoff  :      600.00
  volume of cell :       40.87
      direct lattice vectors                 reciprocal lattice vectors
     0.000000000  2.734000000  2.734000000    -0.182882224  0.182882224  0.182882224
     2.734000000  0.000000000  2.734000000     0.182882224 -0.182882224  0.182882224
     2.734000000  2.734000000  0.000000000     0.182882224  0.182882224 -0.182882224

  length of vectors
     3.866459880  3.866459880  3.866459880     0.316761304  0.316761304  0.316761304

 FORCES acting on ions:
    Electron-Ion                     Ewald-Force                    Non-Local-Force
   -.248E-05 -.248E-05 -.225E-05   0.108E-14 -.120E-14 0.135E-14   -.729E-16 0.153E-15 0.555E-16
   0.248E-05 0.248E-05 0.225E-05   -.991E-15 0.136E-14 -.132E-14   0.121E-15 -.971E-16 -.694E-16
   -.271E-13 0.424E-13 0.698E-14   0.896E-16 0.159E-15 0.308E-16   0.486E-16 0.555E-16 -.139E-16

 POSITION                                       TOTAL-FORCE (eV/Angst)
      4.78450      4.78450      4.78450         0.000000     -0.000000     -0.000000
      0.68350      0.68350      0.68350        -0.000000      0.000000      0.000000
    total drift:                               -0.000000      0.000000      0.000000

  FREE ENERGIE OF THE ION-ELECTRON SYSTEM (eV)
  free  energy   TOTEN  =        -6.95267723 eV

  energy  without entropy=       -6.95838473  energy(sigma->0) =       -6.95457973

 writing wavefunctions

 total charge

# of ion       s       p       d       tot
    1        0.672   1.019   0.000   1.691
    2        0.672   1.019   0.000   1.691
tot          1.343   2.038   0.000   3.381