 vasp.5.4.4.18Apr17-6-g9f103f2a35 (build Jul 29 2018 09:17:02) complex

 executed on             LinuxIFC date 2018.08.05  18:30:01

 INCAR:
 POTCAR:    PAW_PBE Si 05Jan2001

 POTCAR:    PAW_PBE Si 05Jan2001
   VRHFIN =Si: s2p2

   TITEL  = PAW_PBE Si 05Jan2001
   POMASS =   28.085; ZVAL   =    4.000    mass and valenz
   ENMAX  =  245.345; ENMIN  =  184.009 eV

  PAW_PBE Si 05Jan2001                  :

 POSCAR: Si
  positions in direct lattice
 exchange correlation table for  LEXCH =        8
   RHO(1)=    0.500       N(1)  =     2000
   RHO(2)=  100.500       N(2)  =     4000

 ion  position               nearest neighbor table
   1  0.875  0.875  0.875-   2 2.38   2 2.38   2 2.38   2 2.38
   2  0.125  0.125  0.125-   1 2.38   1 2.38   1 2.38   1 2.38

  LATTYP: Found a face centered cubic cell.
 ALAT       =     5.5000000000

  Lattice vectors:

 A1 = (   0.0000000000,   2.7500000000,   2.7500000000)
 A2 = (   2.7500000000,   0.0000000000,   2.7500000000)
 A3 = (   2.7500000000,   2.7500000000,   0.0000000000)

Analysis of symmetry for initial positions (statically):
 Subroutine PRICEL returns:
 Original cell was already a primitive cell.

 Routine SETGRP: Setting up the symmetry group for a
 face centered cubic supercell.

 Subroutine GETGRP returns: Found 48 space group operations
 (whereof 12 operations were pure point group operations)
 out of a pool of 48 trial point group operations.

The static configuration has the point symmetry D_3d.
 The point group associated with its full space group is O_h .

Analysis of symmetry for dynamics (positions and initial velocities):
 Subroutine PRICEL returns:
 Original cell was already a primitive cell.

 Routine SETGRP: Setting up the symmetry group for a
 face centered cubic supercell.

 Subroutine GETGRP returns: Found 48 space group operations
 (whereof 12 operations were pure point group operations)
 out of a pool of 48 trial point group operations.

The dynamic configuration has the point symmetry D_3d.
 The point group associated with its full space group is O_h .

 Subroutine INISYM returns: Found 48 space group operations
 (whereof 12 operations are pure point group operations),
 and found     1 'primitive' translations

 KPOINTS: K-Points

Automatic generation of k-mesh.
Space group operators:
 irot       det(A)        alpha          n_x          n_y          n_z        tau_x        tau_y        tau_z
    1     1.000000     0.000000     1.000000     0.000000     0.000000     0.000000     0.000000     0.000000
    2    -1.000000     0.000000     1.000000     0.000000     0.000000     0.000000     0.000000     0.000000
    3     1.000000   120.000000    -0.577350    -0.577350    -0.577350     0.000000     0.000000     0.000000
    4    -1.000000   120.000000    -0.577350    -0.577350    -0.577350     0.000000     0.000000     0.000000
    5     1.000000   120.000000     0.577350     0.577350     0.577350     0.000000     0.000000     0.000000
    6    -1.000000   120.000000     0.577350     0.577350     0.577350     0.000000     0.000000     0.000000
    7     1.000000   180.000000     0.000000    -0.707107     0.707107     0.000000     0.000000     0.000000
    8    -1.000000   180.000000     0.000000    -0.707107     0.707107     0.000000     0.000000     0.000000
    9     1.000000   180.000000     0.707107    -0.707107     0.000000     0.000000     0.000000     0.000000
   10    -1.000000   180.000000     0.707107    -0.707107     0.000000     0.000000     0.000000     0.000000
   11     1.000000   180.000000     0.707107     0.000000    -0.707107     0.000000     0.000000     0.000000
   12    -1.000000   180.000000     0.707107     0.000000    -0.707107     0.000000     0.000000     0.000000
   13     1.000000    90.000000     0.000000     0.000000    -1.000000     0.500000     0.000000     0.000000
   14    -1.000000    90.000000     0.000000     0.000000    -1.000000     0.500000     0.000000     0.000000
   15     1.000000   180.000000     0.000000     0.707107     0.707107     0.500000     0.000000     0.000000
   16    -1.000000   180.000000     0.000000     0.707107     0.707107     0.500000     0.000000     0.000000
   17     1.000000    90.000000     0.000000     1.000000     0.000000     0.500000     0.000000     0.000000
   18    -1.000000    90.000000     0.000000     1.000000     0.000000     0.500000     0.000000     0.000000
   19     1.000000   180.000000     0.000000     0.000000     1.000000     0.000000     0.000000     0.500000
   20    -1.000000   180.000000     0.000000     0.000000     1.000000     0.000000     0.000000     0.500000
   21     1.000000   120.000000    -0.577350     0.577350     0.577350     0.000000     0.000000     0.500000
   22    -1.000000   120.000000    -0.577350     0.577350     0.577350     0.000000     0.000000     0.500000
   23     1.000000   120.000000    -0.577350     0.577350    -0.577350     0.000000     0.000000     0.500000
   24    -1.000000   120.000000    -0.577350     0.577350    -0.577350     0.000000     0.000000     0.500000
   25     1.000000    90.000000     0.000000     0.000000     1.000000     0.000000     0.500000     0.000000
   26    -1.000000    90.000000     0.000000     0.000000     1.000000     0.000000     0.500000     0.000000
   27     1.000000    90.000000    -1.000000     0.000000     0.000000     0.000000     0.500000     0.000000
   28    -1.000000    90.000000    -1.000000     0.000000     0.000000     0.000000     0.500000     0.000000
   29     1.000000   180.000000     0.707107     0.000000     0.707107     0.000000     0.500000     0.000000
   30    -1.000000   180.000000     0.707107     0.000000     0.707107     0.000000     0.500000     0.000000
   31     1.000000   120.000000     0.577350    -0.577350     0.577350     0.500000     0.000000     0.000000
   32    -1.000000   120.000000     0.577350    -0.577350     0.577350     0.500000     0.000000     0.000000
   33     1.000000   120.000000    -0.577350    -0.577350     0.577350     0.500000     0.000000     0.000000
   34    -1.000000   120.000000    -0.577350    -0.577350     0.577350     0.500000     0.000000     0.000000
   35     1.000000   180.000000     1.000000     0.000000     0.000000     0.500000     0.000000     0.000000
   36    -1.000000   180.000000     1.000000     0.000000     0.000000     0.500000     0.000000     0.000000
   37     1.000000    90.000000     0.000000    -1.000000     0.000000     0.000000     0.000000     0.500000
   38    -1.000000    90.000000     0.000000    -1.000000     0.000000     0.000000     0.000000     0.500000
   39     1.000000   180.000000     0.707107     0.707107     0.000000     0.000000     0.000000     0.500000
   40    -1.000000   180.000000     0.707107     0.707107     0.000000     0.000000     0.000000     0.500000
   41     1.000000    90.000000     1.000000     0.000000     0.000000     0.000000     0.000000     0.500000
   42    -1.000000    90.000000     1.000000     0.000000     0.000000     0.000000     0.000000     0.500000
   43     1.000000   120.000000     0.577350    -0.577350    -0.577350     0.000000     0.500000     0.000000
   44    -1.000000   120.000000     0.577350    -0.577350    -0.577350     0.000000     0.500000     0.000000
   45     1.000000   180.000000     0.000000     1.000000     0.000000     0.000000     0.500000     0.000000
   46    -1.000000   180.000000     0.000000     1.000000     0.000000     0.000000     0.500000     0.000000
   47     1.000000   120.000000     0.577350     0.577350    -0.577350     0.000000     0.500000     0.000000
   48    -1.000000   120.000000     0.577350     0.577350    -0.577350     0.000000     0.500000     0.000000

 Subroutine IBZKPT returns following result:

 Found    408 irreducible k-points:

 Following reciprocal coordinates:
            Coordinates               Weight
  0.031250  0.031250  0.031250     96.000000
  0.093750  0.031250  0.031250    288.000000
  0.156250  0.031250  0.031250    288.000000
  0.218750  0.031250  0.031250    288.000000
  0.281250  0.031250  0.031250    288.000000
  0.343750  0.031250  0.031250    288.000000
  0.406250  0.031250  0.031250    288.000000
  0.468750  0.031250  0.031250    288.000000
 -0.468750  0.031250  0.031250    288.000000
 -0.406250  0.031250  0.031250    288.000000
 -0.343750  0.031250  0.031250    288.000000
 -0.281250  0.031250  0.031250    288.000000
 -0.218750  0.031250  0.031250    288.000000
 -0.156250  0.031250  0.031250    288.000000
 -0.093750  0.031250  0.031250    288.000000
 -0.031250  0.031250  0.031250    288.000000
  0.093750  0.093750  0.031250    288.000000
  0.156250  0.093750  0.031250    576.000000
  0.218750  0.093750  0.031250    576.000000
  0.281250  0.093750  0.031250    576.000000
  0.343750  0.093750  0.031250    576.000000
  0.406250  0.093750  0.031250    576.000000
  0.468750  0.093750  0.031250    576.000000
 -0.468750  0.093750  0.031250    576.000000
 -0.406250  0.093750  0.031250    576.000000
 -0.343750  0.093750  0.031250    576.000000
 -0.281250  0.093750  0.031250    576.000000
 -0.218750  0.093750  0.031250    576.000000
 -0.156250  0.093750  0.031250    576.000000
 -0.093750  0.093750  0.031250    576.000000
 -0.031250  0.093750  0.031250    576.000000
  0.156250  0.156250  0.031250    288.000000
  0.218750  0.156250  0.031250    576.000000
  0.281250  0.156250  0.031250    576.000000
  0.343750  0.156250  0.031250    576.000000
  0.406250  0.156250  0.031250    576.000000
  0.468750  0.156250  0.031250    576.000000
 -0.468750  0.156250  0.031250    576.000000
 -0.406250  0.156250  0.031250    576.000000
 -0.343750  0.156250  0.031250    576.000000
 -0.281250  0.156250  0.031250    576.000000
 -0.218750  0.156250  0.031250    576.000000
 -0.156250  0.156250  0.031250    576.000000
 -0.093750  0.156250  0.031250    576.000000
 -0.031250  0.156250  0.031250    576.000000
  0.218750  0.218750  0.031250    288.000000
  0.281250  0.218750  0.031250    576.000000
  0.343750  0.218750  0.031250    576.000000
  0.406250  0.218750  0.031250    576.000000
  0.468750  0.218750  0.031250    576.000000
 -0.468750  0.218750  0.031250    576.000000
 -0.406250  0.218750  0.031250    576.000000
 -0.343750  0.218750  0.031250    576.000000
 -0.281250  0.218750  0.031250    576.000000
 -0.218750  0.218750  0.031250    576.000000
 -0.156250  0.218750  0.031250    576.000000
 -0.093750  0.218750  0.031250    576.000000
 -0.031250  0.218750  0.031250    576.000000
  0.281250  0.281250  0.031250    288.000000
  0.343750  0.281250  0.031250    576.000000
[...]
 -0.406250  0.468750  0.343750    576.000000
 -0.343750  0.468750  0.343750    576.000000
 -0.468750 -0.468750  0.343750    288.000000
 -0.406250 -0.468750  0.343750    576.000000
 -0.406250 -0.406250  0.343750    288.000000
  0.406250  0.406250  0.406250     96.000000
  0.468750  0.406250  0.406250    288.000000
 -0.468750  0.406250  0.406250    288.000000
 -0.406250  0.406250  0.406250    288.000000
  0.468750  0.468750  0.406250    288.000000
 -0.468750  0.468750  0.406250    576.000000
 -0.406250  0.468750  0.406250    576.000000
 -0.468750 -0.468750  0.406250    288.000000
  0.468750  0.468750  0.468750     96.000000
[...]
 k-point 94 :  -0.4063 0.4688 0.0312  plane waves:    1384
 k-point 95 :  -0.3438 0.4688 0.0312  plane waves:    1385
 k-point 96 :  -0.2813 0.4688 0.0312  plane waves:    1388
 k-point 97 :  -0.2188 0.4688 0.0312  plane waves:    1395
 k-point 98 :  -0.1563 0.4688 0.0312  plane waves:    1393
 k-point 99 :  -0.0938 0.4688 0.0312  plane waves:    1394
 k-point ** :  -0.0312 0.4688 0.0312  plane waves:    1392
 k-point ** :  -0.4688-0.4688 0.0312  plane waves:    1370
 k-point ** :  -0.4063-0.4688 0.0313  plane waves:    1382
 k-point ** :  -0.3438-0.4688 0.0313  plane waves:    1380
 k-point ** :  -0.2813-0.4688 0.0313  plane waves:    1385
 k-point ** :  -0.2187-0.4688 0.0313  plane waves:    1392
 k-point ** :  -0.1562-0.4688 0.0312  plane waves:    1394
 k-point ** :  -0.0938-0.4688 0.0312  plane waves:    1397
 k-point ** :  -0.4062-0.4062 0.0312  plane waves:    1383
 k-point ** :  -0.3437-0.4062 0.0313  plane waves:    1380
 k-point ** :  -0.2812-0.4062 0.0312  plane waves:    1391
 k-point ** :  -0.2188-0.4063 0.0313  plane waves:    1389
 k-point ** :  -0.1562-0.4062 0.0312  plane waves:    1392
 k-point ** :  -0.0938-0.4062 0.0312  plane waves:    1393
 k-point ** :  -0.3438-0.3438 0.0312  plane waves:    1377
 k-point ** :  -0.2812-0.3438 0.0313  plane waves:    1385
 k-point ** :  -0.2187-0.3437 0.0312  plane waves:    1387
 k-point ** :  -0.1563-0.3438 0.0313  plane waves:    1390
 k-point ** :  -0.0937-0.3438 0.0312  plane waves:    1394
 k-point ** :  -0.2812-0.2812 0.0312  plane waves:    1383
 k-point ** :  -0.2188-0.2812 0.0312  plane waves:    1384
 k-point ** :  -0.1563-0.2812 0.0312  plane waves:    1379
 k-point ** :  -0.0937-0.2812 0.0313  plane waves:    1379
 k-point ** :  -0.2187-0.2187 0.0312  plane waves:    1377
 k-point ** :  -0.1562-0.2187 0.0313  plane waves:    1377
 k-point ** :  -0.0938-0.2188 0.0312  plane waves:    1383
 k-point ** :  -0.1562-0.1562 0.0312  plane waves:    1383
 k-point ** :  -0.0937-0.1562 0.0312  plane waves:    1392
 k-point ** :  -0.0938-0.0938 0.0312  plane waves:    1400
 k-point ** :   0.0938 0.0938 0.0938  plane waves:    1393
 k-point ** :   0.1562 0.0937 0.0937  plane waves:    1401
 k-point ** :   0.2188 0.0938 0.0938  plane waves:    1385
 k-point ** :   0.2812 0.0937 0.0937  plane waves:    1377
 k-point ** :   0.3438 0.0938 0.0938  plane waves:    1384
 k-point ** :   0.4062 0.0937 0.0937  plane waves:    1388
 k-point ** :   0.4688 0.0938 0.0938  plane waves:    1392
 k-point ** :  -0.4688 0.0937 0.0937  plane waves:    1397
 k-point ** :  -0.4062 0.0938 0.0938  plane waves:    1395
 k-point ** :  -0.3438 0.0938 0.0938  plane waves:    1396
 k-point ** :  -0.2812 0.0937 0.0937  plane waves:    1395
 k-point ** :  -0.2187 0.0937 0.0938  plane waves:    1386
 k-point ** :  -0.1562 0.0938 0.0938  plane waves:    1384
 k-point ** :  -0.0938 0.0938 0.0938  plane waves:    1394
 k-point ** :   0.1562 0.1562 0.0938  plane waves:    1400
 k-point ** :   0.2188 0.1562 0.0938  plane waves:    1385
 k-point ** :   0.2812 0.1563 0.0937  plane waves:    1378
 k-point ** :   0.3438 0.1562 0.0938  plane waves:    1380
 k-point ** :   0.4062 0.1563 0.0938  plane waves:    1387
 k-point ** :   0.4688 0.1563 0.0937  plane waves:    1396
 k-point ** :  -0.4688 0.1563 0.0937  plane waves:    1393
 k-point ** :  -0.4062 0.1562 0.0937  plane waves:    1396
 k-point ** :  -0.3438 0.1562 0.0938  plane waves:    1396
 k-point ** :  -0.2812 0.1563 0.0938  plane waves:    1391
 k-point ** :  -0.2187 0.1562 0.0937  plane waves:    1385
 k-point ** :  -0.1562 0.1562 0.0937  plane waves:    1375
 k-point ** :  -0.0937 0.1562 0.0938  plane waves:    1384
 k-point ** :   0.2188 0.2188 0.0938  plane waves:    1384
 k-point ** :   0.2812 0.2188 0.0937  plane waves:    1377
 k-point ** :   0.3438 0.2187 0.0938  plane waves:    1376
 k-point ** :   0.4063 0.2188 0.0937  plane waves:    1383
[...]
 k-point ** :  -0.4063 0.4688 0.3438  plane waves:    1392
 k-point ** :  -0.3438 0.4688 0.3438  plane waves:    1394
 k-point ** :  -0.4688-0.4688 0.3438  plane waves:    1393
 k-point ** :  -0.4063-0.4688 0.3438  plane waves:    1392
 k-point ** :  -0.4062-0.4062 0.3438  plane waves:    1394
 k-point ** :   0.4062 0.4062 0.4062  plane waves:    1392
 k-point ** :   0.4688 0.4063 0.4062  plane waves:    1399
 k-point ** :  -0.4688 0.4062 0.4062  plane waves:    1394
 k-point ** :  -0.4063 0.4063 0.4063  plane waves:    1385
 k-point ** :   0.4688 0.4688 0.4062  plane waves:    1397
 k-point ** :  -0.4688 0.4688 0.4062  plane waves:    1393
 k-point ** :  -0.4063 0.4688 0.4062  plane waves:    1398
 k-point ** :  -0.4688-0.4688 0.4062  plane waves:    1394
 k-point ** :   0.4688 0.4688 0.4688  plane waves:    1392
 k-point ** :  -0.4688 0.4688 0.4688  plane waves:    1392

 maximum and minimum number of plane-waves per node :      1402     1370

 maximum number of plane-waves:      1402
 maximum index in each direction:
   IXMAX=    8   IYMAX=    8   IZMAX=    7
   IXMIN=   -8   IYMIN=   -8   IZMIN=   -8

 serial   3D FFT for wavefunctions
 parallel 3D FFT for charge:
    minimum data exchange during FFTs selected (reduces bandwidth)

 Broyden mixing: mesh for mixing (old mesh)
   NGX = 15   NGY = 15   NGZ = 15
  (NGX  = 48   NGY  = 48   NGZ  = 48)
  gives a total of   3375 points

 charge density for first step will be calculated from the start-wavefunctions

 Maximum index for augmentation-charges          757 (set IRDMAX)

 initial charge from wavefunction
 First call to EWALD:  gamma=   0.512
 Maximum number of real-space cells 3x 3x 3
 Maximum number of reciprocal cells 3x 3x 3

--------------------------------------- Iteration      1(   1)  ---------------------------------------

 eigenvalue-minimisations  : 22080
 total energy-change (2. order) :-0.1084680E+02  (-0.4061869E-06)
 number of electron       8.0000000 magnetization
 augmentation part       -0.4580571 magnetization

 Broyden mixing:
  rms(total) = 0.10626E-03    rms(broyden)= 0.10626E-03
  rms(prec ) = 0.19284E-03
  weight for this iteration     100.00

 Free energy of the ion-electron system (eV)
  alpha Z        PSCENC =         3.23732588
  Ewald energy   TEWEN  =      -225.65453461
  -Hartree energ DENC   =       -15.37508278
  -exchange      EXHF   =         0.00000000
  -V(xc)+E(xc)   XCENC  =       -18.13923559
  PAW double counting   =       797.81661042     -762.82085534
  entropy T*S    EENTRO =        -0.00000000
  eigenvalues    EBANDS =         3.95584882
  atomic energy  EATOM  =       206.13311910
  Solvation  Ediel_sol  =         0.00000000
  free energy    TOTEN  =       -10.84680411 eV

  energy without entropy =      -10.84680411  energy(sigma->0) =      -10.84680411

[...]

 eigenvalues of (default mixing * dielectric matrix)
  average eigenvalue GAMMA=   2.4543
  2.4543

[...]

 eigenvalue-minimisations  : 14144
 total energy-change (2. order) : 0.3610467E-08  (-0.4281158E-10)
 number of electron       8.0000000 magnetization
 augmentation part       -0.4580546 magnetization

[...]

 average (electrostatic) potential at core
  the test charge radii are     0.9892
  (the norm of the test charge is              1.0000)
       1 -83.6723       2 -83.6723

 E-fermi :   5.7757     XC(G=0):  -9.2608     alpha+bet :-11.5327

 k-point     1 :       0.0312    0.0312    0.0312
  band No.  band energies     occupation
      1      -6.2402      2.00000
      2       5.2959      2.00000
      3       5.4261      2.00000
      4       5.4261      2.00000
      5       8.0223      0.00000
      6       8.0277      0.00000
      7       8.0277      0.00000
      8       8.4919      0.00000
      9      13.1036      0.00000
     10      13.1036      0.00000
     11      13.3142      0.00000
     12      16.5203      0.00000
     13      16.6567      0.00000
     14      16.6567      0.00000
     15      20.7056      0.00000
     16      27.9276      0.00000

[...]

 soft charge-density along one line, spin component           1
         0         1         2         3         4         5         6         7         8         9
 total charge-density along one line

------------------------ aborting loop because EDIFF is reached ----------------------------------------

  FORCE on cell =-STRESS in cart. coord.  units (eV):
  Direction    XX          YY          ZZ          XY          YZ          ZX
  Alpha Z     3.23733     3.23733     3.23733
  Ewald     -75.21821   -75.21821   -75.21821     0.00000     0.00000    -0.00000
  Hartree     5.12539     5.12539     5.12539     0.00000     0.00000     0.00000
  E(xc)     -25.14860   -25.14860   -25.14860    -0.00000    -0.00000    -0.00000
  Local     -29.74410   -29.74410   -29.74410     0.00001     0.00001     0.00001
  n-local    77.23142    79.63796    74.58782     1.02072    -1.02933     0.00838
  augment   -11.64781   -11.64781   -11.64781    -0.00001    -0.00001    -0.00001
  Kinetic    57.46448    55.47057    54.65593     0.91253    -0.92149     0.00879
  Fock        0.00000     0.00000     0.00000     0.00000     0.00000     0.00000
  Total      -0.37995    -0.37995    -0.37995    -0.00000     0.00000     0.00000
  in kB     -14.63539   -14.63539   -14.63539    -0.00000     0.00000     0.00000

 VOLUME and BASIS-vectors are now :
  energy-cutoff  :      600.00
  volume of cell :       41.59
      direct lattice vectors                 reciprocal lattice vectors
     0.000000000  2.750000000  2.750000000    -0.181818182  0.181818182  0.181818182
     2.750000000  0.000000000  2.750000000     0.181818182 -0.181818182  0.181818182
     2.750000000  2.750000000  0.000000000     0.181818182  0.181818182 -0.181818182

[...]

 FORCES acting on ions
    electron-ion (+dipol)            ewald-force                    non-local-force                 convergence-correction
   0.259E-06 0.259E-06 0.235E-06   -.224E-14 0.478E-15 0.477E-15   -.694E-17 0.000E+00 -.455E-17   0.147E-10 0.147E-10 0.147E-10
   -.259E-06 -.259E-06 -.235E-06   0.208E-14 -.115E-14 -.887E-15   0.347E-17 0.000E+00 0.280E-16   -.147E-10 -.147E-10 -.147E-10
   0.518E-13 0.135E-12 -.104E-13   -.158E-15 -.674E-15 -.410E-15   -.347E-17 0.000E+00 0.234E-16   -.335E-15 -.445E-16 0.656E-15

 POSITION                                       TOTAL-FORCE (eV/Angst)
      4.81250      4.81250      4.81250         0.000000      0.000000      0.000000
      0.68750      0.68750      0.68750        -0.000000     -0.000000     -0.000000
    total drift:                                0.000000      0.000000     -0.000000

  FREE ENERGIE OF THE ION-ELECTRON SYSTEM (eV)
  free  energy   TOTEN  =       -10.84680419 eV

  energy  without entropy=      -10.84680419  energy(sigma->0) =      -10.84680419

[...]

 d Force = 0.0000000E+00[ 0.000E+00, 0.000E+00]  d Energy = 0.2027765E-02-0.203E-02
 d Force = 0.0000000E+00[ 0.000E+00, 0.000E+00]  d Ewald  = 0.2087207E+01-0.209E+01

 Steepest descent step on ions:
 trial-energy change:   -0.002028  1 .order   -0.001894   -0.010446    0.006658
  (g-gl).g = 0.104E-01      g.g   = 0.104E-01  gl.gl    = 0.000E+00
 g(Force)  = 0.878E-46   g(Stress)= 0.104E-01 ortho     = 0.000E+00
 gamma     =   0.00000
 trial     =   1.00000
 opt step  =   0.62176  (harmonic =   0.61074) maximal distance =0.00000000
 next E    =   -10.850084   (d E  =  -0.00328)

[...]

 eigenvalue-minimisations  : 19328
 total energy-change (2. order) : 0.5341234E-06  (-0.7412113E-08)
 number of electron       7.9999999 magnetization
 augmentation part       -0.4583554 magnetization

[...]

 Broyden mixing:
  rms(total) = 0.10759E-03    rms(broyden)= 0.10759E-03
  rms(prec ) = 0.10935E-03
  weight for this iteration     100.00

 eigenvalues of (default mixing * dielectric matrix)
  average eigenvalue GAMMA=   1.8113
  2.8240  2.7049  2.1261  1.0229  1.0950  1.0950

[...]

--------------------------------------- Iteration      3(   8)  ---------------------------------------

 eigenvalue-minimisations  : 12112
 total energy-change (2. order) :-0.7135668E-08  (-0.4746225E-10)
 number of electron       7.9999999 magnetization
 augmentation part       -0.4583529 magnetization

 Free energy of the ion-electron system (eV)
  alpha Z        PSCENC =         3.29330467
  Ewald energy   TEWEN  =      -226.94775748
  -Hartree energ DENC   =       -15.17019601
  -exchange      EXHF   =         0.00000000
  -V(xc)+E(xc)   XCENC  =       -18.06133720
  PAW double counting   =       828.57233934     -793.59105553
  entropy T*S    EENTRO =        -0.00000000
  eigenvalues    EBANDS =         4.92149262
  atomic energy  EATOM  =       206.13311910
  Solvation  Ediel_sol  =         0.00000000
  free energy    TOTEN  =       -10.85009048 eV

  energy without entropy =      -10.85009048  energy(sigma->0) =      -10.85009048

 average (electrostatic) potential at core
  the test charge radii are     0.9892
  (the norm of the test charge is              1.0000)
       1 -83.4833       2 -83.4833

 E-fermi :   5.9297     XC(G=0):  -9.3275     alpha+bet :-11.7322

[...]

 k-point   408 :      -0.4688    0.4688    0.4688
  band No.  band energies     occupation
      1      -3.8812      2.00000
      2      -1.2217      2.00000
      3       4.0464      2.00000
      4       4.3708      2.00000
      5       7.4215      0.00000
      6       8.9253      0.00000
      7       9.1252      0.00000
      8      13.4989      0.00000
      9      15.3251      0.00000
     10      15.5532      0.00000
     11      16.6113      0.00000
     12      17.4562      0.00000
     13      17.6673      0.00000
     14      18.7025      0.00000
     15      24.5362      0.00000
     16      25.4134      0.00000

 soft charge-density along one line, spin component           1
         0         1         2         3         4         5         6         7         8         9
 total charge-density along one line

------------------------ aborting loop because EDIFF is reached ----------------------------------------

  FORCE on cell =-STRESS in cart. coord.  units (eV):
  Direction    XX          YY          ZZ          XY          YZ          ZX
  Alpha Z     3.29330     3.29330     3.29330
  Ewald     -75.64929   -75.64929   -75.64929    -0.00000    -0.00000    -0.00000
  Hartree     5.05674     5.05674     5.05674     0.00000     0.00000     0.00000
  E(xc)     -25.24617   -25.24617   -25.24617    -0.00000    -0.00000    -0.00000
  Local     -29.50112   -29.50112   -29.50112     0.00001     0.00001     0.00001
  n-local    77.52916    79.94121    74.87707     1.03788    -1.04653     0.00842
  augment   -11.64960   -11.64960   -11.64960    -0.00001    -0.00001    -0.00001
  Kinetic    57.88694    55.71217    55.14609     0.89904    -0.90788     0.00868
  Fock        0.00000     0.00000     0.00000     0.00000     0.00000     0.00000
  Total       0.00142     0.00142     0.00142    -0.00000    -0.00000    -0.00000
  in kB       0.05546     0.05546     0.05546    -0.00000    -0.00000    -0.00000

 VOLUME and BASIS-vectors are now :
  energy-cutoff  :      600.00
  volume of cell :       40.89
      direct lattice vectors                 reciprocal lattice vectors
     0.000000000  2.734329597  2.734329597    -0.182860179  0.182860179  0.182860179
     2.734329597  0.000000000  2.734329597     0.182860179 -0.182860179  0.182860179
     2.734329597  2.734329597  0.000000000     0.182860179  0.182860179 -0.182860179

  length of vectors
     3.866926000  3.866926000  3.866926000     0.316723121  0.316723121  0.316723121

 FORCES acting on ions
    electron-ion (+dipol)            ewald-force                    non-local-force                 convergence-correction
   0.230E-06 0.230E-06 0.216E-06   0.527E-14 0.770E-14 0.777E-14   -.486E-16 -.555E-16 -.574E-16   -.515E-10 -.515E-10 -.515E-10
   -.230E-06 -.230E-06 -.216E-06   -.496E-14 -.782E-14 -.802E-14   0.520E-16 0.659E-16 0.664E-16   0.515E-10 0.515E-10 0.515E-10
   0.410E-13 0.133E-12 -.736E-16   0.318E-15 -.120E-15 -.254E-15   0.347E-17 0.104E-16 0.900E-17   -.215E-15 -.719E-15 -.914E-16

 POSITION                                       TOTAL-FORCE (eV/Angst)
      4.78508      4.78508      4.78508         0.000000      0.000000      0.000000
      0.68358      0.68358      0.68358        -0.000000     -0.000000     -0.000000
    total drift:                                0.000000      0.000000     -0.000000

  FREE ENERGIE OF THE ION-ELECTRON SYSTEM (eV)
  free  energy   TOTEN  =       -10.85009048 eV

  energy  without entropy=      -10.85009048  energy(sigma->0) =      -10.85009048

 d Force = 0.0000000E+00[ 0.000E+00, 0.000E+00]  d Energy = 0.1258522E-02-0.126E-02
 d Force = 0.0000000E+00[ 0.000E+00, 0.000E+00]  d Ewald  =-0.7939840E+00 0.794E+00

 reached required accuracy - stopping structural energy minimisation
 writing wavefunctions