 vasp.5.4.4.18Apr17-6-g9f103f2a35 (build Jul 29 2018 09:17:02) complex

 executed on             LinuxIFC date 2018.08.05  18:49:43

 INCAR:
 POTCAR:    PAW_PBE Si 05Jan2001

 POTCAR:    PAW_PBE Si 05Jan2001
   VRHFIN =Si: s2p2

   TITEL  = PAW_PBE Si 05Jan2001
   POMASS =   28.085; ZVAL   =    4.000    mass and valenz
   ENMAX  =  245.345; ENMIN  =  184.009 eV

  PAW_PBE Si 05Jan2001                  :

 POSCAR: Si
  positions in direct lattice
 exchange correlation table for  LEXCH =        8
   RHO(1)=    0.500       N(1)  =     2000
   RHO(2)=  100.500       N(2)  =     4000

 ion  position               nearest neighbor table
   1  0.875  0.875  0.875-   2 2.37   2 2.37   2 2.37   2 2.37
   2  0.125  0.125  0.125-   1 2.37   1 2.37   1 2.37   1 2.37

  LATTYP: Found a face centered cubic cell.
 ALAT       =     5.4680000000

  Lattice vectors:

 A1 = (   0.0000000000,   2.7340000000,   2.7340000000)
 A2 = (   2.7340000000,   0.0000000000,   2.7340000000)
 A3 = (   2.7340000000,   2.7340000000,   0.0000000000)

Analysis of symmetry for initial positions (statically):
 Subroutine PRICEL returns:
 Original cell was already a primitive cell.

 Routine SETGRP: Setting up the symmetry group for a
 face centered cubic supercell.

 Subroutine GETGRP returns: Found 48 space group operations
 (whereof 12 operations were pure point group operations)
 out of a pool of 48 trial point group operations.

The static configuration has the point symmetry D_3d.
 The point group associated with its full space group is O_h .

Analysis of symmetry for dynamics (positions and initial velocities):
 Subroutine PRICEL returns:
 Original cell was already a primitive cell.

 Routine SETGRP: Setting up the symmetry group for a
 face centered cubic supercell.

 Subroutine GETGRP returns: Found 48 space group operations
 (whereof 12 operations were pure point group operations)
 out of a pool of 48 trial point group operations.

The dynamic configuration has the point symmetry D_3d.
 The point group associated with its full space group is O_h .

 Subroutine INISYM returns: Found 48 space group operations
 (whereof 12 operations are pure point group operations),
 and found     1 'primitive' translations

 KPOINTS: K-Points

Automatic generation of k-mesh.
Space group operators:
 irot       det(A)        alpha          n_x          n_y          n_z        tau_x        tau_y        tau_z
    1     1.000000     0.000001     1.000000     0.000000     0.000000     0.000000     0.000000     0.000000
    2    -1.000000     0.000001     1.000000     0.000000     0.000000     0.000000     0.000000     0.000000
    3     1.000000   120.000000    -0.577350    -0.577350    -0.577350     0.000000     0.000000     0.000000
    4    -1.000000   120.000000    -0.577350    -0.577350    -0.577350     0.000000     0.000000     0.000000
    5     1.000000   120.000000     0.577350     0.577350     0.577350     0.000000     0.000000     0.000000
    6    -1.000000   120.000000     0.577350     0.577350     0.577350     0.000000     0.000000     0.000000
    7     1.000000   180.000000     0.000000    -0.707107     0.707107     0.000000     0.000000     0.000000
    8    -1.000000   180.000000     0.000000    -0.707107     0.707107     0.000000     0.000000     0.000000
    9     1.000000   180.000000     0.707107    -0.707107     0.000000     0.000000     0.000000     0.000000
   10    -1.000000   180.000000     0.707107    -0.707107     0.000000     0.000000     0.000000     0.000000
   11     1.000000   180.000000     0.707107     0.000000    -0.707107     0.000000     0.000000     0.000000
   12    -1.000000   180.000000     0.707107     0.000000    -0.707107     0.000000     0.000000     0.000000
   13     1.000000    90.000000     0.000000     0.000000    -1.000000     0.500000     0.000000     0.000000
   14    -1.000000    90.000000     0.000000     0.000000    -1.000000     0.500000     0.000000     0.000000
   15     1.000000   180.000000     0.000000     0.707107     0.707107     0.500000     0.000000     0.000000
   16    -1.000000   180.000000     0.000000     0.707107     0.707107     0.500000     0.000000     0.000000
   17     1.000000    90.000000     0.000000     1.000000     0.000000     0.500000     0.000000     0.000000
   18    -1.000000    90.000000     0.000000     1.000000     0.000000     0.500000     0.000000     0.000000
   19     1.000000   180.000000     0.000000     0.000000     1.000000     0.000000     0.000000     0.500000
   20    -1.000000   180.000000     0.000000     0.000000     1.000000     0.000000     0.000000     0.500000
   21     1.000000   120.000000    -0.577350     0.577350     0.577350     0.000000     0.000000     0.500000
   22    -1.000000   120.000000    -0.577350     0.577350     0.577350     0.000000     0.000000     0.500000
   23     1.000000   120.000000    -0.577350     0.577350    -0.577350     0.000000     0.000000     0.500000
   24    -1.000000   120.000000    -0.577350     0.577350    -0.577350     0.000000     0.000000     0.500000
   25     1.000000    90.000000     0.000000     0.000000     1.000000     0.000000     0.500000     0.000000
   26    -1.000000    90.000000     0.000000     0.000000     1.000000     0.000000     0.500000     0.000000
   27     1.000000    90.000000    -1.000000     0.000000     0.000000     0.000000     0.500000     0.000000
   28    -1.000000    90.000000    -1.000000     0.000000     0.000000     0.000000     0.500000     0.000000
   29     1.000000   180.000000     0.707107     0.000000     0.707107     0.000000     0.500000     0.000000
   30    -1.000000   180.000000     0.707107     0.000000     0.707107     0.000000     0.500000     0.000000
   31     1.000000   120.000000     0.577350    -0.577350     0.577350     0.500000     0.000000     0.000000
   32    -1.000000   120.000000     0.577350    -0.577350     0.577350     0.500000     0.000000     0.000000
   33     1.000000   120.000000    -0.577350    -0.577350     0.577350     0.500000     0.000000     0.000000
   34    -1.000000   120.000000    -0.577350    -0.577350     0.577350     0.500000     0.000000     0.000000
   35     1.000000   180.000000     1.000000     0.000000     0.000000     0.500000     0.000000     0.000000
   36    -1.000000   180.000000     1.000000     0.000000     0.000000     0.500000     0.000000     0.000000
   37     1.000000    90.000000     0.000000    -1.000000     0.000000     0.000000     0.000000     0.500000
   38    -1.000000    90.000000     0.000000    -1.000000     0.000000     0.000000     0.000000     0.500000
   39     1.000000   180.000000     0.707107     0.707107     0.000000     0.000000     0.000000     0.500000
   40    -1.000000   180.000000     0.707107     0.707107     0.000000     0.000000     0.000000     0.500000
   41     1.000000    90.000000     1.000000     0.000000     0.000000     0.000000     0.000000     0.500000
   42    -1.000000    90.000000     1.000000     0.000000     0.000000     0.000000     0.000000     0.500000
   43     1.000000   120.000000     0.577350    -0.577350    -0.577350     0.000000     0.500000     0.000000
   44    -1.000000   120.000000     0.577350    -0.577350    -0.577350     0.000000     0.500000     0.000000
   45     1.000000   180.000000     0.000000     1.000000     0.000000     0.000000     0.500000     0.000000
   46    -1.000000   180.000000     0.000000     1.000000     0.000000     0.000000     0.500000     0.000000
   47     1.000000   120.000000     0.577350     0.577350    -0.577350     0.000000     0.500000     0.000000
   48    -1.000000   120.000000     0.577350     0.577350    -0.577350     0.000000     0.500000     0.000000

 Subroutine IBZKPT returns following result:

 Found    408 irreducible k-points:

 Following reciprocal coordinates:
            Coordinates               Weight
  0.031250  0.031250  0.031250     96.000000
  0.093750  0.031250  0.031250    288.000000
  0.156250  0.031250  0.031250    288.000000
  0.218750  0.031250  0.031250    288.000000
  0.281250  0.031250  0.031250    288.000000
  0.343750  0.031250  0.031250    288.000000
  0.406250  0.031250  0.031250    288.000000
  0.468750  0.031250  0.031250    288.000000
 -0.468750  0.031250  0.031250    288.000000
 -0.406250  0.031250  0.031250    288.000000
 -0.343750  0.031250  0.031250    288.000000
 -0.281250  0.031250  0.031250    288.000000
 -0.218750  0.031250  0.031250    288.000000
 -0.156250  0.031250  0.031250    288.000000
 -0.093750  0.031250  0.031250    288.000000
 -0.031250  0.031250  0.031250    288.000000
  0.093750  0.093750  0.031250    288.000000
  0.156250  0.093750  0.031250    576.000000
  0.218750  0.093750  0.031250    576.000000
  0.281250  0.093750  0.031250    576.000000
  0.343750  0.093750  0.031250    576.000000
  0.406250  0.093750  0.031250    576.000000
  0.468750  0.093750  0.031250    576.000000
 -0.468750  0.093750  0.031250    576.000000
 -0.406250  0.093750  0.031250    576.000000
 -0.343750  0.093750  0.031250    576.000000
 -0.281250  0.093750  0.031250    576.000000
 -0.218750  0.093750  0.031250    576.000000
 -0.156250  0.093750  0.031250    576.000000
 -0.093750  0.093750  0.031250    576.000000
 -0.031250  0.093750  0.031250    576.000000
  0.156250  0.156250  0.031250    288.000000
  0.218750  0.156250  0.031250    576.000000
  0.281250  0.156250  0.031250    576.000000
  0.343750  0.156250  0.031250    576.000000
  0.406250  0.156250  0.031250    576.000000
  0.468750  0.156250  0.031250    576.000000
 -0.468750  0.156250  0.031250    576.000000
 -0.406250  0.156250  0.031250    576.000000
 -0.343750  0.156250  0.031250    576.000000
 -0.281250  0.156250  0.031250    576.000000
 -0.218750  0.156250  0.031250    576.000000
 -0.156250  0.156250  0.031250    576.000000
 -0.093750  0.156250  0.031250    576.000000
 -0.031250  0.156250  0.031250    576.000000
  0.218750  0.218750  0.031250    288.000000
  0.281250  0.218750  0.031250    576.000000
  0.343750  0.218750  0.031250    576.000000
  0.406250  0.218750  0.031250    576.000000
  0.468750  0.218750  0.031250    576.000000
 -0.468750  0.218750  0.031250    576.000000
 -0.406250  0.218750  0.031250    576.000000
 -0.343750  0.218750  0.031250    576.000000
 -0.281250  0.218750  0.031250    576.000000
 -0.218750  0.218750  0.031250    576.000000
 -0.156250  0.218750  0.031250    576.000000
 -0.093750  0.218750  0.031250    576.000000
 -0.031250  0.218750  0.031250    576.000000
  0.281250  0.281250  0.031250    288.000000
  0.343750  0.281250  0.031250    576.000000
[...]
 -0.406250  0.468750  0.343750    576.000000
 -0.343750  0.468750  0.343750    576.000000
 -0.468750 -0.468750  0.343750    288.000000
 -0.406250 -0.468750  0.343750    576.000000
 -0.406250 -0.406250  0.343750    288.000000
  0.406250  0.406250  0.406250     96.000000
  0.468750  0.406250  0.406250    288.000000
 -0.468750  0.406250  0.406250    288.000000
 -0.406250  0.406250  0.406250    288.000000
  0.468750  0.468750  0.406250    288.000000
 -0.468750  0.468750  0.406250    576.000000
 -0.406250  0.468750  0.406250    576.000000
 -0.468750 -0.468750  0.406250    288.000000
  0.468750  0.468750  0.468750     96.000000
[...]

 position of ions in fractional coordinates (direct lattice)
   0.87500000  0.87500000  0.87500000
   0.12500000  0.12500000  0.12500000

 position of ions in cartesian coordinates  (Angst):
   4.78450000  4.78450000  4.78450000
   0.68350000  0.68350000  0.68350000

 k-point  1 :   0.0312 0.0312 0.0312  plane waves:    1375
 k-point  2 :   0.0937 0.0312 0.0312  plane waves:    1383
 k-point  3 :   0.1562 0.0312 0.0312  plane waves:    1374
 k-point  4 :   0.2187 0.0312 0.0312  plane waves:    1368
 k-point  5 :   0.2812 0.0313 0.0313  plane waves:    1367
 k-point  6 :   0.3438 0.0312 0.0312  plane waves:    1367
 k-point  7 :   0.4062 0.0312 0.0312  plane waves:    1371
 k-point  8 :   0.4688 0.0312 0.0312  plane waves:    1374
 k-point  9 :  -0.4688 0.0312 0.0312  plane waves:    1371
 k-point 10 :  -0.4062 0.0312 0.0312  plane waves:    1376
 k-point 11 :  -0.3438 0.0312 0.0312  plane waves:    1367
 k-point 12 :  -0.2812 0.0312 0.0312  plane waves:    1365
 k-point 13 :  -0.2187 0.0312 0.0312  plane waves:    1364
 k-point 14 :  -0.1562 0.0312 0.0312  plane waves:    1370
 k-point 15 :  -0.0937 0.0313 0.0313  plane waves:    1377
 k-point 16 :  -0.0312 0.0312 0.0312  plane waves:    1379
 k-point 17 :   0.0937 0.0937 0.0312  plane waves:    1377
 k-point 18 :   0.1562 0.0937 0.0312  plane waves:    1372
 k-point 19 :   0.2187 0.0937 0.0312  plane waves:    1364
 k-point 20 :   0.2812 0.0938 0.0312  plane waves:    1365
 k-point 21 :   0.3438 0.0938 0.0312  plane waves:    1364
 k-point 22 :   0.4062 0.0938 0.0312  plane waves:    1371
 k-point 23 :   0.4688 0.0937 0.0312  plane waves:    1374
 k-point 24 :  -0.4688 0.0937 0.0312  plane waves:    1370
 k-point 25 :  -0.4062 0.0937 0.0312  plane waves:    1369
 k-point 26 :  -0.3438 0.0937 0.0312  plane waves:    1368
 k-point 27 :  -0.2812 0.0937 0.0312  plane waves:    1366
 k-point 28 :  -0.2187 0.0937 0.0312  plane waves:    1362
 k-point 29 :  -0.1562 0.0938 0.0313  plane waves:    1367
 k-point 30 :  -0.0937 0.0937 0.0312  plane waves:    1374
 k-point 31 :  -0.0312 0.0937 0.0313  plane waves:    1376
 k-point 32 :   0.1562 0.1562 0.0312  plane waves:    1367
 k-point 33 :   0.2188 0.1562 0.0312  plane waves:    1360
 k-point 34 :   0.2812 0.1562 0.0313  plane waves:    1357
 k-point 35 :   0.3438 0.1562 0.0312  plane waves:    1360
 k-point 36 :   0.4062 0.1562 0.0312  plane waves:    1364
 k-point 37 :   0.4688 0.1562 0.0312  plane waves:    1366
 k-point 38 :  -0.4687 0.1562 0.0312  plane waves:    1365
 k-point 39 :  -0.4062 0.1562 0.0312  plane waves:    1369
 k-point 40 :  -0.3437 0.1562 0.0312  plane waves:    1368
 k-point 41 :  -0.2812 0.1562 0.0312  plane waves:    1364
 k-point 42 :  -0.2187 0.1562 0.0312  plane waves:    1360
 k-point 43 :  -0.1562 0.1562 0.0312  plane waves:    1366
 k-point 44 :  -0.0937 0.1562 0.0313  plane waves:    1370
 k-point 45 :  -0.0312 0.1562 0.0312  plane waves:    1369
 k-point 46 :   0.2188 0.2188 0.0312  plane waves:    1360
 k-point 47 :   0.2812 0.2188 0.0312  plane waves:    1355
 k-point 48 :   0.3438 0.2188 0.0312  plane waves:    1361
 k-point 49 :   0.4062 0.2188 0.0312  plane waves:    1359
 k-point 50 :   0.4688 0.2188 0.0312  plane waves:    1368
 k-point 51 :  -0.4688 0.2187 0.0312  plane waves:    1365
 k-point 52 :  -0.4062 0.2187 0.0312  plane waves:    1370
 k-point 53 :  -0.3438 0.2187 0.0312  plane waves:    1364
 k-point 54 :  -0.2812 0.2187 0.0312  plane waves:    1360
 k-point 55 :  -0.2188 0.2187 0.0312  plane waves:    1361
 k-point 56 :  -0.1562 0.2187 0.0312  plane waves:    1363
 k-point 57 :  -0.0937 0.2187 0.0312  plane waves:    1367
 k-point 58 :  -0.0312 0.2188 0.0313  plane waves:    1366
 k-point 59 :   0.2812 0.2812 0.0312  plane waves:    1353
 k-point 60 :   0.3438 0.2812 0.0312  plane waves:    1356
[...]
 k-point 85 :  -0.4062 0.4062 0.0312  plane waves:    1357
 k-point 86 :  -0.3438 0.4062 0.0312  plane waves:    1362
 k-point 87 :  -0.2812 0.4062 0.0312  plane waves:    1360
 k-point 88 :  -0.2187 0.4062 0.0312  plane waves:    1366
 k-point 89 :  -0.1562 0.4062 0.0312  plane waves:    1371
 k-point 90 :  -0.0937 0.4062 0.0312  plane waves:    1372
 k-point 91 :  -0.0312 0.4062 0.0312  plane waves:    1372
 k-point 92 :   0.4688 0.4688 0.0312  plane waves:    1360
 k-point 93 :  -0.4687 0.4687 0.0312  plane waves:    1360
 k-point 94 :  -0.4062 0.4687 0.0312  plane waves:    1355
 k-point 95 :  -0.3438 0.4687 0.0312  plane waves:    1359
 k-point 96 :  -0.2813 0.4688 0.0312  plane waves:    1357
 k-point 97 :  -0.2187 0.4687 0.0312  plane waves:    1365
 k-point 98 :  -0.1562 0.4687 0.0312  plane waves:    1370
 k-point 99 :  -0.0937 0.4688 0.0312  plane waves:    1368
 k-point ** :  -0.0312 0.4688 0.0312  plane waves:    1374
 k-point ** :  -0.4687-0.4687 0.0312  plane waves:    1362
 k-point ** :  -0.4062-0.4687 0.0312  plane waves:    1358
 k-point ** :  -0.3437-0.4687 0.0312  plane waves:    1360
 k-point ** :  -0.2812-0.4688 0.0312  plane waves:    1362
 k-point ** :  -0.2187-0.4687 0.0313  plane waves:    1365
 k-point ** :  -0.1562-0.4687 0.0312  plane waves:    1367
 k-point ** :  -0.0937-0.4688 0.0312  plane waves:    1370
 k-point ** :  -0.4062-0.4062 0.0312  plane waves:    1356
 k-point ** :  -0.3438-0.4062 0.0312  plane waves:    1362
 k-point ** :  -0.2812-0.4062 0.0312  plane waves:    1361
 k-point ** :  -0.2187-0.4062 0.0312  plane waves:    1369
 k-point ** :  -0.1562-0.4062 0.0313  plane waves:    1368
 k-point ** :  -0.0937-0.4062 0.0312  plane waves:    1370
 k-point ** :  -0.3437-0.3437 0.0312  plane waves:    1365
 k-point ** :  -0.2812-0.3437 0.0312  plane waves:    1359
 k-point ** :  -0.2187-0.3437 0.0312  plane waves:    1364
 k-point ** :  -0.1562-0.3437 0.0312  plane waves:    1364
 k-point ** :  -0.0937-0.3437 0.0313  plane waves:    1363
 k-point ** :  -0.2812-0.2812 0.0312  plane waves:    1359
 k-point ** :  -0.2187-0.2812 0.0312  plane waves:    1356
 k-point ** :  -0.1562-0.2812 0.0312  plane waves:    1359
 k-point ** :  -0.0937-0.2812 0.0312  plane waves:    1362
 k-point ** :  -0.2187-0.2187 0.0312  plane waves:    1358
 k-point ** :  -0.1562-0.2187 0.0312  plane waves:    1360
 k-point ** :  -0.0937-0.2187 0.0312  plane waves:    1359
 k-point ** :  -0.1562-0.1562 0.0312  plane waves:    1364
 k-point ** :  -0.0938-0.1562 0.0312  plane waves:    1364
 k-point ** :  -0.0937-0.0937 0.0312  plane waves:    1375
 k-point ** :   0.0937 0.0937 0.0937  plane waves:    1375
 k-point ** :   0.1562 0.0937 0.0937  plane waves:    1375
 k-point ** :   0.2187 0.0938 0.0937  plane waves:    1373
 k-point ** :   0.2812 0.0937 0.0937  plane waves:    1364
 k-point ** :   0.3438 0.0937 0.0937  plane waves:    1363
 k-point ** :   0.4062 0.0937 0.0937  plane waves:    1370
 k-point ** :   0.4688 0.0937 0.0937  plane waves:    1375
 k-point ** :  -0.4688 0.0938 0.0937  plane waves:    1367
 k-point ** :  -0.4062 0.0937 0.0937  plane waves:    1367
 k-point ** :  -0.3438 0.0937 0.0937  plane waves:    1371
 k-point ** :  -0.2812 0.0937 0.0937  plane waves:    1370
 k-point ** :  -0.2187 0.0937 0.0937  plane waves:    1368
 k-point ** :  -0.1562 0.0938 0.0938  plane waves:    1362
 k-point ** :  -0.0937 0.0938 0.0938  plane waves:    1362
 k-point ** :   0.1562 0.1562 0.0937  plane waves:    1366
 k-point ** :   0.2188 0.1562 0.0937  plane waves:    1367
 k-point ** :   0.2812 0.1562 0.0937  plane waves:    1364
 k-point ** :   0.3438 0.1562 0.0937  plane waves:    1362
 k-point ** :   0.4062 0.1562 0.0937  plane waves:    1366
 k-point ** :   0.4688 0.1562 0.0937  plane waves:    1365
 k-point ** :  -0.4688 0.1562 0.0937  plane waves:    1369
 k-point ** :  -0.4062 0.1562 0.0937  plane waves:    1367
 k-point ** :  -0.3438 0.1562 0.0937  plane waves:    1366
 k-point ** :  -0.2812 0.1562 0.0937  plane waves:    1368
 k-point ** :  -0.2187 0.1562 0.0937  plane waves:    1367
 k-point ** :  -0.1562 0.1562 0.0938  plane waves:    1359
 k-point ** :  -0.0937 0.1562 0.0938  plane waves:    1357
 k-point ** :   0.2188 0.2188 0.0937  plane waves:    1358
 k-point ** :   0.2812 0.2188 0.0937  plane waves:    1358
 k-point ** :   0.3438 0.2187 0.0937  plane waves:    1354
 k-point ** :   0.4062 0.2188 0.0937  plane waves:    1366
[...]
 k-point ** :  -0.4062 0.4688 0.3438  plane waves:    1367
 k-point ** :  -0.3438 0.4688 0.3438  plane waves:    1367
 k-point ** :  -0.4687-0.4687 0.3438  plane waves:    1369
 k-point ** :  -0.4062-0.4688 0.3438  plane waves:    1367
 k-point ** :  -0.4062-0.4062 0.3438  plane waves:    1366
 k-point ** :   0.4062 0.4062 0.4062  plane waves:    1362
 k-point ** :   0.4687 0.4062 0.4062  plane waves:    1370
 k-point ** :  -0.4687 0.4062 0.4062  plane waves:    1374
 k-point ** :  -0.4062 0.4062 0.4062  plane waves:    1378
 k-point ** :   0.4688 0.4688 0.4062  plane waves:    1375
 k-point ** :  -0.4688 0.4688 0.4062  plane waves:    1369
 k-point ** :  -0.4062 0.4687 0.4062  plane waves:    1368
 k-point ** :  -0.4688-0.4688 0.4062  plane waves:    1369
 k-point ** :   0.4688 0.4688 0.4688  plane waves:    1371
 k-point ** :  -0.4688 0.4688 0.4688  plane waves:    1367

 maximum and minimum number of plane-waves per node :      1383     1353

 maximum number of plane-waves:      1383
 maximum index in each direction:
   IXMAX=    8   IYMAX=    8   IZMAX=    7
   IXMIN=   -8   IYMIN=   -8   IZMIN=   -8

 serial   3D FFT for wavefunctions
 parallel 3D FFT for charge:
    minimum data exchange during FFTs selected (reduces bandwidth)

 Broyden mixing: mesh for mixing (old mesh)
   NGX = 15   NGY = 15   NGZ = 15
  (NGX  = 24   NGY  = 24   NGZ  = 24)
  gives a total of   3375 points

 initial charge density was supplied:
 charge density of overlapping atoms calculated
 number of electron       8.0000000 magnetization
 keeping initial charge density in first step

 Maximum index for augmentation-charges          196 (set IRDMAX)

 First call to EWALD:  gamma=   0.515
 Maximum number of real-space cells 3x 3x 3
 Maximum number of reciprocal cells 3x 3x 3

--------------------------------------- Iteration      1(   1)  ---------------------------------------

 eigenvalue-minimisations  : 13056
 total energy-change (2. order) :-0.4625028E+00  (-0.4776289E+03)
 number of electron       8.0000000 magnetization
 augmentation part        8.0000000 magnetization

 Free energy of the ion-electron system (eV)
  alpha Z        PSCENC =         3.29449589
  Ewald energy   TEWEN  =      -226.97511711
  -Hartree energ DENC   =       -11.31730863
  -exchange      EXHF   =         0.00000000
  -V(xc)+E(xc)   XCENC  =       -18.68326879
  PAW double counting   =       176.24759923     -141.06103558
  entropy T*S    EENTRO =         0.00046566
  eigenvalues    EBANDS =        11.89854744
  atomic energy  EATOM  =       206.13311910
  free energy    TOTEN  =        -0.46250280 eV

  energy without entropy =       -0.46296846  energy(sigma->0) =       -0.46265802

[...]

 eigenvalue-minimisations  :     0
 total energy-change (2. order) : 0.2203814E+00  (-0.4280938E-01)
 number of electron       8.0000016 magnetization
 augmentation part       -0.4579103 magnetization

[...]

--------------------------------------- Iteration      1(  15)  ---------------------------------------

 eigenvalue-minimisations  :     0
 total energy-change (2. order) :-0.8299139E-09  (-0.4621606E-09)
 number of electron       8.0000016 magnetization
 augmentation part       -0.4583652 magnetization

 Free energy of the ion-electron system (eV)
  alpha Z        PSCENC =         3.29449589
  Ewald energy   TEWEN  =      -226.97511711
  -Hartree energ DENC   =       -15.16604592
  -exchange      EXHF   =         0.00000000
  -V(xc)+E(xc)   XCENC  =       -18.05909569
  PAW double counting   =       829.60475449     -794.62379908
  entropy T*S    EENTRO =         0.00040719
  eigenvalues    EBANDS =         4.94142301
  atomic energy  EATOM  =       206.13311910
  free energy    TOTEN  =       -10.84985812 eV

  energy without entropy =      -10.85026532  energy(sigma->0) =      -10.84999385

  average scaling for gradient   1.3970

 average (electrostatic) potential at core
  the test charge radii are     0.9892
  (the norm of the test charge is              1.0000)
       1 -83.4790       2 -83.4790

 E-fermi :   5.6580     XC(G=0):  -9.3289     alpha+bet :-11.7364

 k-point     1 :       0.0312    0.0312    0.0312
  band No.  band energies     occupation
      1      -6.1850      2.00000
      2       5.4695      2.03619
      3       5.5981      1.48312
      4       5.5981      1.48311
      5       8.2080     -0.00000
      6       8.2086     -0.00000
      7       8.2086     -0.00000
      8       8.8550     -0.00000
      9      13.2849      0.00000
     10      13.2849      0.00000
     11      13.5553      0.00000
     12      16.7507      0.00000
     13      16.8889      0.00000
     14      16.8889      0.00000
     15      20.9875      0.00000
     16      28.3353      0.00000

[...]

 k-point   408 :      -0.4688    0.4688    0.4688
  band No.  band energies     occupation
      1      -3.8792      2.00000
      2      -1.2197      2.00000
      3       4.0496      2.00000
      4       4.3740      2.00000
      5       7.4262     -0.00000
      6       8.9287     -0.00000
      7       9.1287     -0.00000
      8      13.5032      0.00000
      9      15.3300      0.00000
     10      15.5578      0.00000
     11      16.6173      0.00000
     12      17.4618      0.00000
     13      17.6733      0.00000
     14      18.7108      0.00000
     15      24.5438      0.00000
     16      25.4212      0.00000

 soft charge-density along one line, spin component           1
         0         1         2         3         4         5         6         7         8         9
 total charge-density along one line

------------------------ aborting loop because EDIFF is reached ----------------------------------------

 total charge

# of ion       s       p       d       tot
    1        0.751   0.928   0.000   1.679
    2        0.751   0.928   0.000   1.679
tot          1.502   1.856   0.000   3.358

  FORCE on cell =-STRESS in cart. coord.  units (eV):
  Direction    XX          YY          ZZ          XY          YZ          ZX
  Alpha Z     3.29450     3.29450     3.29450
  Ewald     -75.65841   -75.65841   -75.65841    -0.00000    -0.00000     0.00000
  Hartree     5.05534     5.05534     5.05534     0.00000     0.00000     0.00000
  E(xc)     -25.24906   -25.24906   -25.24906    -0.00019    -0.00019    -0.00019
  Local     -29.49602   -29.49602   -29.49602     0.00024     0.00024     0.00024
  n-local    77.53783    79.94937    74.88267     1.04122    -1.04578     0.00903
  augment   -11.65225   -11.65225   -11.65225    -0.00016    -0.00016    -0.00016
  Kinetic    57.89777    55.71822    55.15360     0.90308    -0.90609     0.00945
  Fock        0.00000     0.00000     0.00000     0.00000     0.00000     0.00000
  Total       0.00726     0.00726     0.00726     0.00000     0.00000     0.00000
  in kB       0.28450     0.28450     0.28450     0.00000     0.00000     0.00000

 VOLUME and BASIS-vectors are now :
  energy-cutoff  :      600.00
  volume of cell :       40.87
      direct lattice vectors                 reciprocal lattice vectors
     0.000000000  2.734000000  2.734000000    -0.182882224  0.182882224  0.182882224
     2.734000000  0.000000000  2.734000000     0.182882224 -0.182882224  0.182882224
     2.734000000  2.734000000  0.000000000     0.182882224  0.182882224 -0.182882224

  length of vectors
     3.866459880  3.866459880  3.866459880     0.316761304  0.316761304  0.316761304

 FORCES acting on ions:
    Electron-Ion                     Ewald-Force                    Non-Local-Force
   -.266E-05 -.266E-05 -.241E-05   0.108E-14 -.120E-14 0.135E-14   0.694E-17 0.104E-16 0.680E-17
   0.266E-05 0.266E-05 0.241E-05   -.991E-15 0.136E-14 -.132E-14   -.139E-16 -.243E-16 -.577E-17
   -.340E-13 0.317E-13 0.927E-14   0.896E-16 0.159E-15 0.308E-16   -.694E-17 -.139E-16 0.103E-17

 POSITION                                       TOTAL-FORCE (eV/Angst)
      4.78450      4.78450      4.78450         0.000000      0.000000      0.000000
      0.68350      0.68350      0.68350        -0.000000     -0.000000     -0.000000
    total drift:                               -0.000000      0.000000      0.000000

  FREE ENERGIE OF THE ION-ELECTRON SYSTEM (eV)
  free  energy   TOTEN  =       -10.84985812 eV

  energy  without entropy=      -10.85026532  energy(sigma->0) =      -10.84999385

 writing wavefunctions

 total charge

# of ion       s       p       d       tot
    1        0.751   0.928   0.000   1.679
    2        0.751   0.928   0.000   1.679
tot          1.502   1.856   0.000   3.358