 vasp.5.4.4.18Apr17-6-g9f103f2a35 (build Aug 27 2018 20:03:23) complex

 executed on             LinuxIFC date 2018.09.11  10:06:59

 INCAR:
 POTCAR:    PAW_PBE Si 05Jan2001
 POTCAR:    PAW_PBE Si 05Jan2001
   VRHFIN =Si: s2p2

   TITEL  = PAW_PBE Si 05Jan2001
   POMASS =   28.085; ZVAL   =    4.000    mass and valenz
   ENMAX  =  245.345; ENMIN  =  184.009 eV

  PAW_PBE Si 05Jan2001                  :

 POSCAR: generated by phonopy
  positions in direct lattice
 exchange correlation table for  LEXCH =        8
   RHO(1)=    0.500       N(1)  =     2000
   RHO(2)=  100.500       N(2)  =     4000

 ion  position               nearest neighbor table
   1  0.001  0.000  0.000-  33 2.35  63 2.35  54 2.36  44 2.36
   2  0.500  0.000  0.000-  34 2.35  43 2.35  53 2.35  64 2.35
   3  0.000  0.500  0.000-  35 2.35  42 2.35  56 2.35  61 2.35
   4  0.500  0.500  0.000-  36 2.35  41 2.35  55 2.35  62 2.35
   5  0.000  0.000  0.500-  37 2.35  48 2.35  50 2.35  59 2.35
   6  0.500  0.000  0.500-  38 2.35  47 2.35  49 2.35  60 2.35
   7  0.000  0.500  0.500-  39 2.35  46 2.35  52 2.35  57 2.35
   8  0.500  0.500  0.500-  40 2.35  45 2.35  51 2.35  58 2.35
   9  0.250  0.250  0.000-  33 2.35  41 2.35  53 2.35  61 2.35
  10  0.750  0.250  0.000-  34 2.35  42 2.35  54 2.35  62 2.35
  11  0.250  0.750  0.000-  35 2.35  43 2.35  55 2.35  63 2.35
  12  0.750  0.750  0.000-  36 2.35  44 2.35  56 2.35  64 2.35
  13  0.250  0.250  0.500-  37 2.35  45 2.35  49 2.35  57 2.35
  14  0.750  0.250  0.500-  38 2.35  46 2.35  50 2.35  58 2.35
  15  0.250  0.750  0.500-  39 2.35  47 2.35  51 2.35  59 2.35
  16  0.750  0.750  0.500-  40 2.35  48 2.35  52 2.35  60 2.35
  17  0.000  0.250  0.250-  33 2.35  42 2.35  50 2.35  57 2.35
  18  0.500  0.250  0.250-  34 2.35  41 2.35  49 2.35  58 2.35
  19  0.000  0.750  0.250-  35 2.35  44 2.35  52 2.35  59 2.35
  20  0.500  0.750  0.250-  36 2.35  43 2.35  51 2.35  60 2.35
  21  0.000  0.250  0.750-  37 2.35  46 2.35  54 2.35  61 2.35
  22  0.500  0.250  0.750-  38 2.35  45 2.35  53 2.35  62 2.35
  23  0.000  0.750  0.750-  39 2.35  48 2.35  56 2.35  63 2.35
  24  0.500  0.750  0.750-  40 2.35  47 2.35  55 2.35  64 2.35
  25  0.250  0.000  0.250-  33 2.35  43 2.35  49 2.35  59 2.35
  26  0.750  0.000  0.250-  34 2.35  44 2.35  50 2.35  60 2.35
  27  0.250  0.500  0.250-  35 2.35  41 2.35  51 2.35  57 2.35
  28  0.750  0.500  0.250-  36 2.35  42 2.35  52 2.35  58 2.35
  29  0.250  0.000  0.750-  37 2.35  47 2.35  53 2.35  63 2.35
  30  0.750  0.000  0.750-  38 2.35  48 2.35  54 2.35  64 2.35
  31  0.250  0.500  0.750-  39 2.35  45 2.35  55 2.35  61 2.35
  32  0.750  0.500  0.750-  40 2.35  46 2.35  56 2.35  62 2.35
  33  0.125  0.125  0.125-   1 2.35   9 2.35  17 2.35  25 2.35
  34  0.625  0.125  0.125-   2 2.35  10 2.35  18 2.35  26 2.35
  35  0.125  0.625  0.125-   3 2.35  11 2.35  19 2.35  27 2.35
  36  0.625  0.625  0.125-   4 2.35  12 2.35  20 2.35  28 2.35
  37  0.125  0.125  0.625-   5 2.35  13 2.35  21 2.35  29 2.35
  38  0.625  0.125  0.625-   6 2.35  14 2.35  22 2.35  30 2.35
  39  0.125  0.625  0.625-   7 2.35  15 2.35  23 2.35  31 2.35
  40  0.625  0.625  0.625-   8 2.35  16 2.35  24 2.35  32 2.35
  41  0.375  0.375  0.125-   4 2.35   9 2.35  18 2.35  27 2.35
  42  0.875  0.375  0.125-   3 2.35  10 2.35  17 2.35  28 2.35
  43  0.375  0.875  0.125-   2 2.35  11 2.35  20 2.35  25 2.35
  44  0.875  0.875  0.125-  12 2.35  19 2.35  26 2.35   1 2.36
  45  0.375  0.375  0.625-   8 2.35  13 2.35  22 2.35  31 2.35
  46  0.875  0.375  0.625-   7 2.35  14 2.35  21 2.35  32 2.35
  47  0.375  0.875  0.625-   6 2.35  15 2.35  24 2.35  29 2.35
  48  0.875  0.875  0.625-   5 2.35  16 2.35  23 2.35  30 2.35
  49  0.375  0.125  0.375-   6 2.35  13 2.35  18 2.35  25 2.35
  50  0.875  0.125  0.375-   5 2.35  14 2.35  17 2.35  26 2.35
  51  0.375  0.625  0.375-   8 2.35  15 2.35  20 2.35  27 2.35
  52  0.875  0.625  0.375-   7 2.35  16 2.35  19 2.35  28 2.35
  53  0.375  0.125  0.875-   2 2.35   9 2.35  22 2.35  29 2.35
  54  0.875  0.125  0.875-  10 2.35  21 2.35  30 2.35   1 2.36
  55  0.375  0.625  0.875-   4 2.35  11 2.35  24 2.35  31 2.35
  56  0.875  0.625  0.875-   3 2.35  12 2.35  23 2.35  32 2.35
  57  0.125  0.375  0.375-   7 2.35  13 2.35  17 2.35  27 2.35
  58  0.625  0.375  0.375-   8 2.35  14 2.35  18 2.35  28 2.35
  59  0.125  0.875  0.375-   5 2.35  15 2.35  19 2.35  25 2.35
  60  0.625  0.875  0.375-   6 2.35  16 2.35  20 2.35  26 2.35
  61  0.125  0.375  0.875-   3 2.35   9 2.35  21 2.35  31 2.35
  62  0.625  0.375  0.875-   4 2.35  10 2.35  22 2.35  32 2.35
  63  0.125  0.875  0.875-   1 2.35  11 2.35  23 2.35  29 2.35
  64  0.625  0.875  0.875-   2 2.35  12 2.35  24 2.35  30 2.35

  LATTYP: Found a simple cubic cell.
 ALAT       =    10.8620000000

  Lattice vectors:

 A1 = (  10.8620000000,   0.0000000000,   0.0000000000)
 A2 = (   0.0000000000,  10.8620000000,   0.0000000000)
 A3 = (   0.0000000000,   0.0000000000,  10.8620000000)

Analysis of symmetry for initial positions (statically):
 Subroutine PRICEL returns:
 Original cell was already a primitive cell.

 Routine SETGRP: Setting up the symmetry group for a
 simple cubic supercell.

 Subroutine GETGRP returns: Found  4 space group operations
 (whereof  4 operations were pure point group operations)
 out of a pool of 48 trial point group operations.

The static configuration has the point symmetry C_2v.

Analysis of symmetry for dynamics (positions and initial velocities):
 Subroutine PRICEL returns:
 Original cell was already a primitive cell.

 Routine SETGRP: Setting up the symmetry group for a
 simple cubic supercell.

 Subroutine GETGRP returns: Found  4 space group operations
 (whereof  4 operations were pure point group operations)
 out of a pool of 48 trial point group operations.

The dynamic configuration has the point symmetry C_2v.

 Subroutine INISYM returns: Found  4 space group operations
 (whereof  4 operations are pure point group operations),
 and found     1 'primitive' translations

 KPOINTS: Automatic mesh

Automatic generation of k-mesh.
Space group operators:
 irot       det(A)        alpha          n_x          n_y          n_z        tau_x        tau_y        tau_z
    1     1.000000     0.000001     1.000000     0.000000     0.000000     0.000000     0.000000     0.000000
    2    -1.000000   180.000000     0.000000     0.707107     0.707107     0.000000     0.000000     0.000000
    3     1.000000   180.000000     1.000000     0.000000     0.000000     0.000000     0.000000     0.000000
    4    -1.000000   180.000000     0.000000    -0.707107     0.707107     0.000000     0.000000     0.000000

 Subroutine IBZKPT returns following result:

 Found     21 irreducible k-points:

 Following reciprocal coordinates:
            Coordinates               Weight
  0.000000  0.000000  0.000000      1.000000
  0.250000  0.000000  0.000000      2.000000
  0.500000  0.000000  0.000000      1.000000
  0.000000  0.250000  0.000000      4.000000
  0.250000  0.250000  0.000000      8.000000
  0.500000  0.250000  0.000000      4.000000
  0.000000  0.500000  0.000000      2.000000
  0.250000  0.500000  0.000000      4.000000
  0.500000  0.500000  0.000000      2.000000
  0.000000  0.250000  0.250000      2.000000
  0.250000  0.250000  0.250000      4.000000
  0.500000  0.250000  0.250000      2.000000
  0.000000  0.500000  0.250000      4.000000
  0.250000  0.500000  0.250000      8.000000
  0.500000  0.500000  0.250000      4.000000
  0.000000 -0.250000  0.250000      2.000000
  0.250000 -0.250000  0.250000      4.000000
  0.500000 -0.250000  0.250000      2.000000
  0.000000  0.500000  0.500000      1.000000
  0.250000  0.500000  0.500000      2.000000
  0.500000  0.500000  0.500000      1.000000

 Following cartesian coordinates:
            Coordinates               Weight
  0.000000  0.000000  0.000000      1.000000
  0.023016  0.000000  0.000000      2.000000
  0.046032  0.000000  0.000000      1.000000
  0.000000  0.023016  0.000000      4.000000
  0.023016  0.023016  0.000000      8.000000
  0.046032  0.023016  0.000000      4.000000
  0.000000  0.046032  0.000000      2.000000
  0.023016  0.046032  0.000000      4.000000
  0.046032  0.046032  0.000000      2.000000
  0.000000  0.023016  0.023016      2.000000
  0.023016  0.023016  0.023016      4.000000
  0.046032  0.023016  0.023016      2.000000
  0.000000  0.046032  0.023016      4.000000
  0.023016  0.046032  0.023016      8.000000
  0.046032  0.046032  0.023016      4.000000
  0.000000 -0.023016  0.023016      2.000000
  0.023016 -0.023016  0.023016      4.000000
  0.046032 -0.023016  0.023016      2.000000
  0.000000  0.046032  0.046032      1.000000
  0.023016  0.046032  0.046032      2.000000
  0.046032  0.046032  0.046032      1.000000

 SYSTEM =  unknown system
 POSCAR =  generated by phonopy

 Startparameter for this run:
   NWRITE =      2    write-flag & timer
   PREC   = accura    normal or accurate (medium, high low for compatibility)
   ISTART =      1    job   : 0-new  1-cont  2-samecut
   ICHARG =      0    charge: 1-file 2-atom 10-const
   ISPIN  =      1    spin polarized calculation?
   LNONCOLLINEAR =      F non collinear calculations
   LSORBIT =      F    spin-orbit coupling
   INIWAV =      1    electr: 0-lowe 1-rand  2-diag
   LASPH  =      F    aspherical Exc in radial PAW
   METAGGA=      F    non-selfconsistent MetaGGA calc.

 Electronic Relaxation 1
   ENCUT  =  400.0 eV  29.40 Ry    5.42 a.u.  17.71 17.71 17.71*2*pi/ulx,y,z
   ENINI  =  400.0     initial cutoff
   ENAUG  =  322.1 eV  augmentation charge cutoff
   NELM   =     60;   NELMIN=  5; NELMDL=  0     # of ELM steps
   EDIFF  = 0.1E-07   stopping-criterion for ELM
   LREAL  =      F    real-space projection
   NLSPLINE    = F    spline interpolate recip. space projectors
   LCOMPAT=      F    compatible to vasp.4.4
   GGA_COMPAT  = T    GGA compatible to vasp.4.4-vasp.4.6
   LMAXPAW     = -100 max onsite density
   LMAXMIX     =    2 max onsite mixed and CHGCAR
   VOSKOWN=      0    Vosko Wilk Nusair interpolation
   ROPT   =    0.00000
 Ionic relaxation
   EDIFFG = 0.1E-06   stopping-criterion for IOM
   NSW    =      0    number of steps for IOM
   NBLOCK =      1;   KBLOCK =      1    inner block; outer block
   IBRION =     -1    ionic relax: 0-MD 1-quasi-New 2-CG
   NFREE  =      0    steps in history (QN), initial steepest desc. (CG)
   ISIF   =      2    stress and relaxation
   IWAVPR =     10    prediction:  0-non 1-charg 2-wave 3-comb
   ISYM   =      2    0-nonsym 1-usesym 2-fastsym
   LCORR  =      T    Harris-Foulkes like correction to forces

   POTIM  = 0.5000    time-step for ionic-motion
   TEIN   =    0.0    initial temperature
   TEBEG  =    0.0;   TEEND  =   0.0 temperature during run
   SMASS  =  -3.00    Nose mass-parameter (am)
   estimated Nose-frequenzy (Omega)   =  0.10E-29 period in steps =****** mass=  -0.270E-26a.u.
   SCALEE = 1.0000    scale energy and forces
   NPACO  =    256;   APACO  = 16.0  distance and # of slots for P.C.
   PSTRESS=    0.0 pullay stress

  Mass of Ions in am
   POMASS =  28.09
  Ionic Valenz
   ZVAL   =   4.00
  Atomic Wigner-Seitz radii
  virtual crystal weights
   VCA    =   1.00
[...]
     58       1.8990      2.00000
     59       1.8998      2.00000
     60       1.9002      2.00000
[...]
    150       7.3464      0.00000
    151       7.3506      0.00000
    152       7.3513      0.00000
    153       7.8545      0.00000
    154       7.8548      0.00000
    155       7.8553      0.00000
    156       7.8557      0.00000
    157       7.8558      0.00000
    158       7.8562      0.00000
    159       7.8567      0.00000
    160       7.8570      0.00000
    161       9.3303      0.00000
    162       9.3317      0.00000
    163       9.3319      0.00000
    164       9.3323      0.00000

 soft charge-density along one line, spin component           1
         0         1         2         3         4         5         6         7         8         9
 total charge-density along one line

------------------------ aborting loop because EDIFF is reached ----------------------------------------

  FORCE on cell =-STRESS in cart. coord.  units (eV):
  Direction    XX          YY          ZZ          XY          YZ          ZX
  Alpha Z   107.59326   107.59326   107.59326
  Ewald   -2437.58337 -2437.57373 -2437.57373     0.00000     0.78561    -0.00000
  Hartree   159.17822   159.18005   159.18005    -0.00000     0.08750    -0.00000
  E(xc)    -811.70241  -811.70251  -811.70251     0.00000    -0.00703    -0.00000
  Local    -935.36596  -935.37702  -935.37702    -0.00000    -0.82463     0.00000
  n-local  2491.07602  2491.36932  2490.78681    -1.15489     0.16509    -2.23875
  augment  -372.99182  -372.99193  -372.99193     0.00000    -0.00734     0.00000
  Kinetic  1815.12871  1816.08923  1814.16741    -1.50068    -0.09990    -3.64479
  Fock        0.00000     0.00000     0.00000     0.00000     0.00000     0.00000
  Total      15.33264    15.33450    15.33450     0.00000     0.09932     0.00000
  in kB      19.16894    19.17127    19.17127     0.00000     0.12417     0.00000

 VOLUME and BASIS-vectors are now :
  energy-cutoff  :      400.00
  volume of cell :     1281.53
      direct lattice vectors                 reciprocal lattice vectors
    10.862000000  0.000000000  0.000000000     0.092064077  0.000000000  0.000000000
     0.000000000 10.862000000  0.000000000     0.000000000  0.092064077  0.000000000
     0.000000000  0.000000000 10.862000000     0.000000000  0.000000000  0.092064077

  length of vectors
    10.862000000 10.862000000 10.862000000     0.092064077  0.092064077  0.092064077

 FORCES acting on ions
    electron-ion (+dipol)            ewald-force                    non-local-force                 convergence-correction
   0.521E+00 0.171E-10 0.163E-07   -.474E+00 0.622E-14 -.755E-14   -.181E+00 0.000E+00 0.000E+00   -.425E-05 0.483E-16 -.381E-14
   -.610E-01 -.147E-10 -.146E-07   0.616E-01 0.711E-14 -.711E-14   -.486E-03 0.000E+00 0.000E+00   0.413E-05 -.497E-15 -.462E-14
   0.208E-01 -.621E-13 -.373E-11   -.195E-01 0.711E-14 -.147E-13   -.848E-03 0.000E+00 0.000E+00   -.767E-05 0.593E-15 -.351E-14
   -.163E-01 0.331E-12 -.391E-11   0.153E-01 0.355E-14 -.311E-14   0.972E-03 0.000E+00 0.000E+00   0.796E-05 0.194E-14 -.426E-14
   0.208E-01 0.208E-13 -.320E-10   -.195E-01 0.799E-14 -.178E-14   -.848E-03 0.000E+00 0.000E+00   -.767E-05 0.370E-17 0.168E-14
   -.163E-01 0.248E-13 -.318E-10   0.153E-01 -.533E-14 -.533E-14   0.972E-03 0.000E+00 0.000E+00   0.796E-05 0.180E-14 0.688E-15
   -.261E-02 -.238E-13 -.266E-10   -.805E-02 0.422E-14 -.799E-14   0.674E-02 0.000E+00 0.000E+00   -.694E-05 -.856E-15 0.219E-15
   -.702E-02 -.429E-12 -.264E-10   0.753E-02 0.488E-14 -.115E-13   -.319E-03 0.000E+00 0.000E+00   0.642E-05 -.111E-15 -.284E-15
   -.299E-01 -.561E-01 0.175E-02   0.296E-01 0.568E-01 0.113E-13   0.221E-02 0.121E-02 -.793E-03   0.763E-05 0.640E-05 -.802E-06
   -.300E-01 0.558E-01 0.168E-02   0.298E-01 -.565E-01 0.444E-15   0.219E-02 -.120E-02 -.743E-03   -.787E-05 0.100E-04 0.226E-06
   -.299E-01 0.561E-01 -.175E-02   0.296E-01 -.568E-01 0.711E-14   0.221E-02 -.121E-02 0.793E-03   0.763E-05 -.640E-05 0.802E-06
   -.300E-01 -.558E-01 -.168E-02   0.298E-01 0.565E-01 -.355E-14   0.219E-02 0.120E-02 0.743E-03   -.787E-05 -.100E-04 -.226E-06
   -.522E-03 -.614E-02 0.504E-03   0.913E-03 0.468E-02 0.444E-14   -.499E-04 0.835E-03 -.426E-03   0.638E-05 0.839E-05 0.159E-05
   -.580E-03 0.611E-02 0.513E-03   0.982E-03 -.467E-02 0.444E-15   -.470E-04 -.833E-03 -.433E-03   -.642E-05 0.716E-05 -.647E-06
   -.522E-03 0.614E-02 -.504E-03   0.913E-03 -.468E-02 0.400E-14   -.499E-04 -.835E-03 0.426E-03   0.638E-05 -.839E-05 -.159E-05
   -.580E-03 -.611E-02 -.513E-03   0.982E-03 0.467E-02 -.533E-14   -.470E-04 0.833E-03 0.433E-03   -.642E-05 -.716E-05 0.647E-06
   0.263E-01 0.499E-02 0.499E-02   -.368E-01 -.107E-03 -.107E-03   0.619E-02 -.585E-02 -.585E-02   -.684E-05 0.864E-05 0.864E-05
   -.203E-01 -.147E-03 -.147E-03   0.207E-01 0.319E-04 0.319E-04   -.459E-03 0.284E-04 0.284E-04   0.750E-05 0.722E-05 0.722E-05
   0.263E-01 0.475E-02 -.475E-02   -.368E-01 0.107E-03 -.107E-03   0.616E-02 -.579E-02 0.579E-02   -.571E-05 -.871E-05 0.871E-05
   -.203E-01 -.656E-04 0.656E-04   0.207E-01 -.319E-04 0.319E-04   -.466E-03 0.259E-04 -.259E-04   0.540E-05 -.736E-05 0.736E-05
   0.263E-01 -.475E-02 0.475E-02   -.368E-01 -.107E-03 0.107E-03   0.616E-02 0.579E-02 -.579E-02   -.571E-05 0.871E-05 -.871E-05
   -.203E-01 0.656E-04 -.656E-04   0.207E-01 0.319E-04 -.319E-04   -.466E-03 -.259E-04 0.259E-04   0.540E-05 0.736E-05 -.736E-05
   0.263E-01 -.499E-02 -.499E-02   -.368E-01 0.107E-03 0.107E-03   0.619E-02 0.585E-02 0.585E-02   -.684E-05 -.864E-05 -.864E-05
   -.203E-01 0.147E-03 0.147E-03   0.207E-01 -.319E-04 -.319E-04   -.459E-03 -.284E-04 -.284E-04   0.750E-05 -.722E-05 -.722E-05
   -.299E-01 0.175E-02 -.561E-01   0.296E-01 0.200E-14 0.568E-01   0.221E-02 -.793E-03 0.121E-02   0.763E-05 -.802E-06 0.640E-05
   -.300E-01 0.168E-02 0.558E-01   0.298E-01 0.444E-14 -.565E-01   0.219E-02 -.743E-03 -.120E-02   -.787E-05 0.226E-06 0.100E-04
   -.522E-03 0.504E-03 -.614E-02   0.913E-03 0.289E-14 0.468E-02   -.499E-04 -.426E-03 0.835E-03   0.638E-05 0.159E-05 0.839E-05
   -.580E-03 0.513E-03 0.611E-02   0.982E-03 0.311E-14 -.467E-02   -.470E-04 -.433E-03 -.833E-03   -.642E-05 -.647E-06 0.716E-05
   -.299E-01 -.175E-02 0.561E-01   0.296E-01 0.755E-14 -.568E-01   0.221E-02 0.793E-03 -.121E-02   0.763E-05 0.802E-06 -.640E-05
   -.300E-01 -.168E-02 -.558E-01   0.298E-01 0.107E-13 0.565E-01   0.219E-02 0.743E-03 0.120E-02   -.787E-05 -.226E-06 -.100E-04
   -.522E-03 -.504E-03 0.614E-02   0.913E-03 0.124E-13 -.468E-02   -.499E-04 0.426E-03 -.835E-03   0.638E-05 -.159E-05 -.839E-05
   -.580E-03 -.513E-03 -.611E-02   0.982E-03 0.533E-14 0.467E-02   -.470E-04 0.433E-03 0.833E-03   -.642E-05 0.647E-06 -.716E-05
   -.842E-02 -.202E+00 -.202E+00   0.665E-02 0.177E+00 0.177E+00   0.346E-01 0.489E-01 0.489E-01   0.187E-05 0.487E-05 0.487E-05
   -.518E-01 0.173E-01 0.173E-01   0.523E-01 -.167E-01 -.167E-01   -.554E-03 -.313E-03 -.313E-03   -.211E-05 0.602E-05 0.602E-05
   0.132E-01 0.179E-01 -.520E-02   -.150E-01 -.168E-01 0.669E-02   0.129E-02 -.801E-03 -.109E-02   0.300E-06 -.533E-05 0.607E-05
   -.155E-01 -.874E-02 0.373E-02   0.151E-01 0.807E-02 -.361E-02   0.666E-03 0.886E-03 0.113E-03   -.234E-06 -.659E-05 0.515E-05
   0.132E-01 -.520E-02 0.179E-01   -.150E-01 0.669E-02 -.168E-01   0.129E-02 -.109E-02 -.801E-03   0.300E-06 0.607E-05 -.533E-05
   -.155E-01 0.373E-02 -.874E-02   0.151E-01 -.361E-02 0.807E-02   0.666E-03 0.113E-03 0.886E-03   -.234E-06 0.515E-05 -.659E-05
   0.138E-01 0.848E-03 0.848E-03   -.755E-02 -.362E-02 -.362E-02   -.417E-02 0.301E-02 0.301E-02   -.117E-05 -.659E-05 -.659E-05
   -.763E-02 -.218E-02 -.218E-02   0.755E-02 0.261E-02 0.261E-02   -.838E-04 -.186E-03 -.186E-03   0.127E-05 -.521E-05 -.521E-05
   -.155E-01 -.882E-02 -.381E-02   0.150E-01 0.813E-02 0.364E-02   0.675E-03 0.900E-03 -.760E-04   0.102E-04 0.505E-05 0.452E-05
   0.130E-01 0.179E-01 0.521E-02   -.148E-01 -.168E-01 -.671E-02   0.129E-02 -.805E-03 0.109E-02   -.102E-04 0.759E-05 0.591E-05
   -.520E-01 0.175E-01 -.175E-01   0.524E-01 -.169E-01 0.169E-01   -.543E-03 -.319E-03 0.319E-03   0.930E-05 -.528E-05 0.528E-05
   -.105E-01 -.201E+00 0.201E+00   0.840E-02 0.176E+00 -.176E+00   0.346E-01 0.481E-01 -.481E-01   -.865E-05 -.611E-05 0.611E-05
   -.761E-02 -.221E-02 0.221E-02   0.751E-02 0.263E-02 -.263E-02   -.800E-04 -.180E-03 0.180E-03   0.894E-05 0.482E-05 -.482E-05
   0.138E-01 0.839E-03 -.839E-03   -.750E-02 -.363E-02 0.363E-02   -.419E-02 0.302E-02 -.302E-02   -.902E-05 0.639E-05 -.639E-05
   -.155E-01 0.381E-02 0.882E-02   0.150E-01 -.364E-02 -.813E-02   0.675E-03 0.760E-04 -.900E-03   0.102E-04 -.452E-05 -.505E-05
   0.130E-01 -.521E-02 -.179E-01   -.148E-01 0.671E-02 0.168E-01   0.129E-02 -.109E-02 0.805E-03   -.102E-04 -.591E-05 -.759E-05
   -.155E-01 -.381E-02 -.882E-02   0.150E-01 0.364E-02 0.813E-02   0.675E-03 -.760E-04 0.900E-03   0.102E-04 0.452E-05 0.505E-05
   0.130E-01 0.521E-02 0.179E-01   -.148E-01 -.671E-02 -.168E-01   0.129E-02 0.109E-02 -.805E-03   -.102E-04 0.591E-05 0.759E-05
   -.761E-02 0.221E-02 -.221E-02   0.751E-02 -.263E-02 0.263E-02   -.800E-04 0.180E-03 -.180E-03   0.894E-05 -.482E-05 0.482E-05
   0.138E-01 -.839E-03 0.839E-03   -.750E-02 0.363E-02 -.363E-02   -.419E-02 -.302E-02 0.302E-02   -.902E-05 -.639E-05 0.639E-05
   -.520E-01 -.175E-01 0.175E-01   0.524E-01 0.169E-01 -.169E-01   -.543E-03 0.319E-03 -.319E-03   0.930E-05 0.528E-05 -.528E-05
   -.105E-01 0.201E+00 -.201E+00   0.840E-02 -.176E+00 0.176E+00   0.346E-01 -.481E-01 0.481E-01   -.865E-05 0.611E-05 -.611E-05
   -.155E-01 0.882E-02 0.381E-02   0.150E-01 -.813E-02 -.364E-02   0.675E-03 -.900E-03 0.760E-04   0.102E-04 -.505E-05 -.452E-05
   0.130E-01 -.179E-01 -.521E-02   -.148E-01 0.168E-01 0.671E-02   0.129E-02 0.805E-03 -.109E-02   -.102E-04 -.759E-05 -.591E-05
   0.138E-01 -.848E-03 -.848E-03   -.755E-02 0.362E-02 0.362E-02   -.417E-02 -.301E-02 -.301E-02   -.117E-05 0.659E-05 0.659E-05
   -.763E-02 0.218E-02 0.218E-02   0.755E-02 -.261E-02 -.261E-02   -.838E-04 0.186E-03 0.186E-03   0.127E-05 0.521E-05 0.521E-05
   0.132E-01 0.520E-02 -.179E-01   -.150E-01 -.669E-02 0.168E-01   0.129E-02 0.109E-02 0.801E-03   0.300E-06 -.607E-05 0.533E-05
   -.155E-01 -.373E-02 0.874E-02   0.151E-01 0.361E-02 -.807E-02   0.666E-03 -.113E-03 -.886E-03   -.234E-06 -.515E-05 0.659E-05
   0.132E-01 -.179E-01 0.520E-02   -.150E-01 0.168E-01 -.669E-02   0.129E-02 0.801E-03 0.109E-02   0.300E-06 0.533E-05 -.607E-05
   -.155E-01 0.874E-02 -.373E-02   0.151E-01 -.807E-02 0.361E-02   0.666E-03 -.886E-03 -.113E-03   -.234E-06 0.659E-05 -.515E-05
   -.842E-02 0.202E+00 0.202E+00   0.665E-02 -.177E+00 -.177E+00   0.346E-01 -.489E-01 -.489E-01   0.187E-05 -.487E-05 -.487E-05
   -.518E-01 -.173E-01 -.173E-01   0.523E-01 0.167E-01 0.167E-01   -.554E-03 0.313E-03 0.313E-03   -.211E-05 -.602E-05 -.602E-05
   -.809E-06 -.674E-11 0.194E-09   -.549E-13 -.763E-14 0.253E-13   0.446E-05 -.867E-17 -.173E-16   0.578E-06 0.252E-13 -.122E-12

 POSITION                                       TOTAL-FORCE (eV/Angst)
      0.01000      0.00000      0.00000        -0.134256      0.000000      0.000000
      5.43100      0.00000      0.00000         0.000166      0.000000      0.000000
      0.00000      5.43100      0.00000         0.000455      0.000000      0.000000
      5.43100      5.43100      0.00000        -0.000043      0.000000      0.000000
      0.00000      0.00000      5.43100         0.000455      0.000000      0.000000
      5.43100      0.00000      5.43100        -0.000043      0.000000      0.000000
      0.00000      5.43100      5.43100        -0.003927      0.000000      0.000000
      5.43100      5.43100      5.43100         0.000196      0.000000      0.000000
      2.71550      2.71550      0.00000         0.001982      0.001940      0.000952
      8.14650      2.71550      0.00000         0.001966     -0.001928      0.000941
      2.71550      8.14650      0.00000         0.001982     -0.001940     -0.000952
      8.14650      8.14650      0.00000         0.001966      0.001928     -0.000941
      2.71550      2.71550      5.43100         0.000347     -0.000617      0.000079
      8.14650      2.71550      5.43100         0.000348      0.000618      0.000079
      2.71550      8.14650      5.43100         0.000347      0.000617     -0.000079
      8.14650      8.14650      5.43100         0.000348     -0.000618     -0.000079
      0.00000      2.71550      2.71550        -0.004310     -0.000953     -0.000953
      5.43100      2.71550      2.71550        -0.000030     -0.000079     -0.000079
      0.00000      8.14650      2.71550        -0.004298     -0.000940      0.000940
      5.43100      8.14650      2.71550        -0.000027     -0.000079      0.000079
      0.00000      2.71550      8.14650        -0.004298      0.000940     -0.000940
      5.43100      2.71550      8.14650        -0.000027      0.000079     -0.000079
      0.00000      8.14650      8.14650        -0.004310      0.000953      0.000953
      5.43100      8.14650      8.14650        -0.000030      0.000079      0.000079
      2.71550      0.00000      2.71550         0.001982      0.000952      0.001940
      8.14650      0.00000      2.71550         0.001966      0.000941     -0.001928
      2.71550      5.43100      2.71550         0.000347      0.000079     -0.000617
      8.14650      5.43100      2.71550         0.000348      0.000079      0.000618
      2.71550      0.00000      8.14650         0.001982     -0.000952     -0.001940
      8.14650      0.00000      8.14650         0.001966     -0.000941      0.001928
      2.71550      5.43100      8.14650         0.000347     -0.000079      0.000617
      8.14650      5.43100      8.14650         0.000348     -0.000079     -0.000618
      1.35775      1.35775      1.35775         0.032809      0.023130      0.023130
      6.78875      1.35775      1.35775        -0.000078      0.000314      0.000314
      1.35775      6.78875      1.35775        -0.000507      0.000317      0.000401
      6.78875      6.78875      1.35775         0.000223      0.000209      0.000233
      1.35775      1.35775      6.78875        -0.000507      0.000401      0.000317
      6.78875      1.35775      6.78875         0.000223      0.000233      0.000209
      1.35775      6.78875      6.78875         0.002089      0.000238      0.000238
      6.78875      6.78875      6.78875        -0.000166      0.000244      0.000244
      4.07325      4.07325      1.35775         0.000227      0.000213     -0.000240
      9.50425      4.07325      1.35775        -0.000501      0.000312     -0.000406
      4.07325      9.50425      1.35775        -0.000078      0.000314     -0.000314
      9.50425      9.50425      1.35775         0.032501      0.022526     -0.022526
      4.07325      4.07325      6.78875        -0.000167      0.000242     -0.000242
      9.50425      4.07325      6.78875         0.002082      0.000235     -0.000235
      4.07325      9.50425      6.78875         0.000227      0.000240     -0.000213
      9.50425      9.50425      6.78875        -0.000501      0.000406     -0.000312
      4.07325      1.35775      4.07325         0.000227     -0.000240      0.000213
      9.50425      1.35775      4.07325        -0.000501     -0.000406      0.000312
      4.07325      6.78875      4.07325        -0.000167     -0.000242      0.000242
      9.50425      6.78875      4.07325         0.002082     -0.000235      0.000235
      4.07325      1.35775      9.50425        -0.000078     -0.000314      0.000314
      9.50425      1.35775      9.50425         0.032501     -0.022526      0.022526
      4.07325      6.78875      9.50425         0.000227     -0.000213      0.000240
      9.50425      6.78875      9.50425        -0.000501     -0.000312      0.000406
      1.35775      4.07325      4.07325         0.002089     -0.000238     -0.000238
      6.78875      4.07325      4.07325        -0.000166     -0.000244     -0.000244
      1.35775      9.50425      4.07325        -0.000507     -0.000401     -0.000317
      6.78875      9.50425      4.07325         0.000223     -0.000233     -0.000209
      1.35775      4.07325      9.50425        -0.000507     -0.000317     -0.000401
      6.78875      4.07325      9.50425         0.000223     -0.000209     -0.000233
      1.35775      9.50425      9.50425         0.032809     -0.023130     -0.023130
      6.78875      9.50425      9.50425        -0.000078     -0.000314     -0.000314
    total drift:                                0.000004     -0.000000      0.000000

  FREE ENERGIE OF THE ION-ELECTRON SYSTEM (eV)
  free  energy   TOTEN  =      -347.03111844 eV

  energy  without entropy=     -347.03111844  energy(sigma->0) =     -347.03111844